LAMMPS (28 Feb 2019)
units lj

variable seed equal 1
variable dt equal 0.005
variable tau equal ${dt}*100
variable tau equal 0.005*100
timestep ${dt}
timestep 0.005

variable rise equal 1.5
variable rise_cut equal ${rise}*2.0
variable rise_cut equal 1.5*2.0
variable repulsive_dist equal 1.5
variable repulsive_cut equal ${repulsive_dist}*1.12246204831
variable repulsive_cut equal 1.5*1.12246204831

atom_style bond
dimension 3
read_data trajectory_polymer_unique_eps6.0_1.lammpsdata
  orthogonal box = (-25 -25 -25) to (25 25 25)
  1 by 1 by 1 MPI processor grid
  reading atoms ...
  12 atoms
  reading velocities ...
  12 velocities
  scanning bonds ...
  1 = max bonds/atom
  reading bonds ...
  11 bonds
  2 = max # of 1-2 neighbors
  2 = max # of 1-3 neighbors
  4 = max # of 1-4 neighbors
  6 = max # of special neighbors

bond_style harmonic
bond_coeff * 100.0 1.0

pair_style lj/cut ${rise_cut}
pair_style lj/cut 3
# type1 type2 epsilon distance cutoff
pair_coeff * * 3.0 ${repulsive_dist} ${repulsive_cut}
pair_coeff * * 3.0 1.5 ${repulsive_cut}
pair_coeff * * 3.0 1.5 1.683693072465
pair_coeff 1 5 ${eps} ${rise}
pair_coeff 1 5 7.5 ${rise}
pair_coeff 1 5 7.5 1.5
pair_coeff 2 6 ${eps} ${rise}
pair_coeff 2 6 7.5 ${rise}
pair_coeff 2 6 7.5 1.5
pair_coeff 3 7 ${eps} ${rise}
pair_coeff 3 7 7.5 ${rise}
pair_coeff 3 7 7.5 1.5
pair_coeff 4 8 ${eps} ${rise}
pair_coeff 4 8 7.5 ${rise}
pair_coeff 4 8 7.5 1.5
pair_coeff 5 9 ${eps} ${rise}
pair_coeff 5 9 7.5 ${rise}
pair_coeff 5 9 7.5 1.5
pair_coeff 6 10 ${eps} ${rise}
pair_coeff 6 10 7.5 ${rise}
pair_coeff 6 10 7.5 1.5
pair_coeff 7 11 ${eps} ${rise}
pair_coeff 7 11 7.5 ${rise}
pair_coeff 7 11 7.5 1.5
pair_coeff 8 12 ${eps} ${rise}
pair_coeff 8 12 7.5 ${rise}
pair_coeff 8 12 7.5 1.5
pair_modify shift yes
special_bonds lj 0.0 0.5 1.0
  2 = max # of 1-2 neighbors
  2 = max # of 1-3 neighbors
  4 = max # of 1-4 neighbors
  6 = max # of special neighbors


atom_modify sort 1 0.5

velocity all create 1.0 ${seed}
velocity all create 1.0 1
fix 1 all nvt temp 1.0 1.0 ${tau}
fix 1 all nvt temp 1.0 1.0 0.5
fix 2 all plumed plumedfile ${plumed_file}
fix 2 all plumed plumedfile helix_sf_f0_eps7.5_10000000.plumed.dat

dump 1 all dcd 5000 ${outprefix}.dcd
dump 1 all dcd 5000 helix_sf_pull0.dcd
dump 2 all atom ${steps} ${outprefix}.lammpstrj
dump 2 all atom 10000000 ${outprefix}.lammpstrj
dump 2 all atom 10000000 helix_sf_pull0.lammpstrj
dump_modify 2 sort id scale no

thermo 1000

run ${steps}
run 10000000
Neighbor list info ...
  update every 1 steps, delay 10 steps, check yes
  max neighbors/atom: 2000, page size: 100000
  master list distance cutoff = 3.3
  ghost atom cutoff = 3.3
  binsize = 1.65, bins = 31 31 31
  1 neighbor lists, perpetual/occasional/extra = 1 0 0
  (1) pair lj/cut, perpetual
      attributes: half, newton on
      pair build: half/bin/newton
      stencil: half/bin/3d/newton
      bin: standard
Per MPI rank memory allocation (min/avg/max) = 5.177 | 5.177 | 5.177 Mbytes
Step Temp E_pair E_mol TotEng Press 
       0            1   -3.6089506   0.35796656    -1.875984 -0.00029796377 
    1000   0.78976723   -4.3394542   0.31927228   -2.9342519 -0.00022256344 
    2000    1.3034518   -4.1999595   0.60726062   -1.8004526 0.00028238596 
    3000   0.72944203   -3.8530395   0.48154412   -2.3685126 0.00043221776 
    4000    1.2049688   -4.2814904   0.55471211   -2.0699461 0.00024378462 
    5000    1.2227027   -3.6407305   0.74559586   -1.2139184 -0.00019858859 
    6000    0.9672243   -4.1474929   0.28921536   -2.5283442 -9.2719043e-05 
    7000    1.0419187   -4.3143804   0.48450265   -2.3972396 -0.00024215552 
    8000   0.67617258   -3.6084605    0.6758838   -2.0028394 0.00013080205 
    9000   0.71177027   -4.3966331    0.5792689   -2.8386801 -0.00024771036 
   10000    1.1863748   -3.9637069   0.61298401   -1.7194576 -0.00016459601 
   11000    1.8050541   -4.0027915   0.43534963   -1.0854924 0.00027124423 
   12000   0.88629991    -4.049905   0.40840231   -2.4228403 5.5733794e-06 
   13000     1.284653   -4.0275798   0.28914164   -1.9720403 -0.00012703025 
   14000    1.6463086   -3.9378521   0.63537236   -1.0388055 -0.00012404786 
   15000     1.233614    -3.765792   0.37024849   -1.6993243 -4.0808037e-07 
   16000    1.2577101   -3.7139241   0.23493462    -1.749638 4.2027425e-05 
   17000      1.20548   -4.1996232   0.32563714    -2.216451 0.00010234891 
   18000    1.0103199   -4.2875054    0.6052044   -2.2931112 5.0353222e-05 
   19000   0.86653957   -3.5907205    0.4193815   -1.9798471 -0.00033144709 
   20000   0.64963807   -3.9694715   0.49101932   -2.5851998 7.3002376e-05 
   21000    1.0924568   -3.2968289    0.4678193   -1.3268814 -2.860498e-05 
   22000   0.69832634   -3.7524762   0.59975942   -2.1925181 -0.00013007691 
   23000   0.71470728   -4.1565591   0.73528109   -2.4385555 -0.00054377916 
   24000    0.9035345   -3.3833287   0.51105344   -1.6299154 9.3758613e-05 
   25000    1.7780323   -4.0008507   0.67581489  -0.88024138 0.00040240777 
   26000   0.80455215   -4.3733305   0.33912951   -2.9279418 0.00033281298 
   27000    1.0064669   -4.2352048   0.79748886    -2.053824 -0.00013306502 
   28000    1.0798861    -3.992197   0.21150566   -2.2958479 0.00021989277 
   29000   0.79688475   -3.4764267   0.90997426   -1.4707359 -0.00012758887 
   30000    1.3063086   -3.7647828   0.76045527   -1.2081533 -0.0001759266 
   31000   0.66399657   -3.7464245    0.2881783    -2.545251 -4.6686008e-05 
   32000   0.93078091   -3.7785949   0.59583818   -1.9029329 0.00019110617 
   33000      1.19598   -3.7907453   0.50007706   -1.6461958 0.00017285341 
   34000   0.92162061    -4.479149   0.26801982   -2.9439008 -0.00020749371 
   35000   0.81546099   -3.9685365   0.84036462    -2.006913 -0.00024028095 
   36000    0.5925494   -4.0300713   0.28573481   -2.9295811 -4.6072829e-05 
   37000    1.0172087   -3.1916065   0.44284556    -1.350099 -0.00015048207 
   38000   0.98702099    -3.577078   0.57829728   -1.6416269 -0.00022109583 
   39000    1.0131654   -3.4539006   0.29582054   -1.7649777 0.0005136605 
   40000   0.80863024   -3.9257071   0.68678451    -2.127056 9.4276747e-05 
   41000    1.0096113   -3.9695984   0.79128424   -1.7900986 -9.9308208e-05 
   42000    1.0585432   -3.6805911   0.39436685   -1.8307273 -0.00026631193 
   43000   0.91081305   -3.5645555   0.23995347   -2.0722341 0.00056894405 
   44000    1.2454011    -4.046183   0.47274785   -1.8610087 0.00047360951 
   45000    0.9394648   -3.9459615   0.40962524   -2.2445721 1.4255403e-05 
   46000    1.0724901   -3.7524495   0.30950881   -1.9682668 0.00020431627 
   47000   0.69925626   -4.3884526   0.46244966   -2.9645256 2.6153649e-05 
   48000   0.59063591   -4.0791396   0.91374846   -2.3532667 -0.00012581549 
   49000   0.71404256   -3.8241583   0.76726276    -2.075087 -0.00038235087 
   50000    1.0892045   -4.3669744   0.34089191   -2.5284263 0.00045409664 
   51000   0.80843546   -3.7326783   0.33100342   -2.2900761 0.00031125696 
   52000   0.60337983    -4.486079   0.44709861   -3.2093332 0.00016676599 
   53000    1.0320282   -3.7105436   0.18176224   -2.1097426 -1.406109e-05 
   54000   0.59605468   -3.5972679   0.44727826   -2.3304145 0.00043183199 
   55000    1.1172295   -3.1019096   0.69273517   -0.8729839 0.00066268063 
   56000    0.9190843   -4.2298547   0.39286348   -2.5732503 0.00013774701 
   57000    1.2920716   -3.8629574   0.51735831   -1.5690007 -9.4190797e-05 
   58000    1.1327317   -3.9766127   0.86222573   -1.5568809 -8.8011807e-05 
   59000   0.66362675    -3.517626   0.40234981   -2.2027894 0.00037538945 
   60000    1.6550167   -3.9170187   0.58718263   -1.0541882 0.00023553272 
   61000    1.1027952   -3.5332936   0.35452936   -1.6624208 0.00038994148 
   62000    1.4293995   -4.2398765   0.55359978   -1.7208524 -0.00010246286 
   63000    1.3762837   -3.8879802   0.58972873   -1.4058613 0.00018478711 
   64000   0.84311465   -3.7302449   0.35911792   -2.2118443 -9.8845395e-05 
   65000    1.3771401   -3.3495619   0.48508906  -0.97090522 -0.00019113757 
   66000    1.0835975   -4.0979664   0.69015415   -1.9178658 0.00023181545 
   67000    1.7962432   -3.7694619   0.26585598   -1.0337715 0.00012623846 
   68000    1.1475682   -3.8233298   0.42461113   -1.8208124 -0.00017756696 
   69000   0.99777572   -2.9395808   0.63603809  -0.93160107 -0.0001716148 
   70000     1.106609   -4.1664721   0.43398068   -2.2109041 -0.00014415847 
   71000   0.64576208   -4.0728632   0.36281858   -2.8221218 -0.00022840854 
   72000   0.88684841   -3.5206462   0.51592452   -1.7853051 -5.8937461e-05 
   73000   0.91758409   -3.6980962    1.1369463   -1.2994718 -0.00028388591 
   74000   0.93447017   -3.8761618   0.28150687   -2.3097584 -2.7692658e-05 
   75000   0.83650376   -3.8789942    0.5861283   -2.1426732 0.00032337668 
   76000   0.97091717   -3.1578449  0.085555855    -1.737278 3.8663091e-05 
   77000     1.567388   -3.9119978   0.63274087   -1.1240984 -0.00020805493 
   78000    1.2255688   -4.3194334   0.52751731    -2.106759 -0.00018771677 
   79000    1.1871393   -3.1595179   0.38026449   -1.1469368 -2.0142964e-05 
   80000    1.2460653   -3.9952628   0.40937008   -1.8725529 0.00018948253 
   81000   0.97633994    -3.907419   0.63355117   -1.9314004 -0.00032167325 
   82000    1.1875085   -4.3615277   0.72132667   -2.0073767 -0.00015891107 
   83000   0.43056791   -3.8853576   0.38101326   -2.9123135 -0.00026484665 
   84000    1.5281836   -4.1638341   0.69998549   -1.3625962 -6.4662102e-05 
   85000    1.1698566   -3.0732854   0.34164476   -1.1230878 -3.8478198e-05 
   86000     1.149288   -3.4398382   0.23609812   -1.6234691 -8.7775651e-05 
   87000   0.82001321   -3.9600841   0.47704386    -2.355522 -2.5490195e-06 
   88000   0.99536748   -2.9472679   0.51082708   -1.0678105 0.00037538769 
   89000    1.3614285   -4.2486349   0.61931395   -1.7573568 -0.00034200497 
   90000   0.75357056   -4.2680095   0.29981199    -2.932038 -1.6261426e-06 
   91000    1.4831389   -4.1136488   0.41507866   -1.6592541 0.00021187981 
   92000    1.2343202   -4.0082887   0.66458566   -1.6465127 -1.4669059e-06 
   93000    1.2588343   -3.8568872      0.60526     -1.52073 -8.4227494e-05 
   94000    1.3289094   -3.7236566    1.0523999   -0.8440062 -9.579901e-05 
   95000   0.75935095   -4.0533699    0.9357183   -2.0735441 -0.00021813168 
   96000   0.93540947   -3.8777428    0.3649496   -2.2266052 0.00031880979 
   97000   0.89878545   -3.8410711   0.86152944   -1.7437117 -0.00022444657 
   98000    1.4901215   -3.9807864   0.73190499   -1.1999643 0.0002165298 
   99000    0.7057549   -3.5936285   0.36774237   -2.2554731 6.838934e-05 
  100000    1.2931552   -3.6364718   0.66192395   -1.1964595 0.0002229402 
  101000    1.0282471   -3.6700083   0.33553329   -1.9206352 0.00016242707 
  102000    0.6543478   -4.0730591   0.57702577   -2.5963051 -0.0003028809 
  103000    0.9632354   -4.1737027    1.1509036   -1.6983504 -0.00048862797 
  104000    1.1667673    -4.467744    0.4648631   -2.3985759 -0.00016303466 
  105000   0.99258947   -2.8665562   0.97434891  -0.52739681 -0.00033744334 
  106000    1.0622931    -3.131552   0.22078389    -1.450115 0.00019303593 
  107000    1.1344301   -3.6974317   0.92162008   -1.2159702 -0.00021155005 
  108000    0.8918848   -3.9573766   0.42110963   -2.3099254 -1.3202144e-05 
  109000    1.2502785   -3.7640887   0.23771481    -1.807241 0.00054811749 
  110000    1.0302945   -4.3948607   0.20560868    -2.772597 0.00028415522 
  111000    1.0049511   -3.4307499   0.35794341   -1.6909987 -3.8885563e-05 
  112000   0.70807626   -4.0217194   0.51573432   -2.5323802 4.637066e-05 
  113000    1.0902603   -3.8521622   0.69374659   -1.6593077 0.00016704583 
  114000   0.58660939   -4.2268395   0.34172888   -3.0785227 -0.0001505765 
  115000     1.512821   -3.8806178   0.42725443   -1.3732345 0.00036536282 
  116000   0.54707138   -3.7843696    0.6645083   -2.3676381 0.00051922538 
  117000   0.76450125    -3.671757   0.58902755   -2.0315402 0.00034555004 
  118000   0.75914021    -4.289446   0.26266687   -2.9829613 -8.7865675e-06 
  119000   0.97559749   -4.3047959   0.59039126   -2.3729581 8.1820982e-05 
  120000   0.83676275   -2.7688053   0.70133719  -0.91691933 8.4322744e-05 
  121000    0.8055878   -4.1827374    0.5605756   -2.5144786 0.00022758597 
  122000   0.98362732   -3.0660318   0.83079775  -0.88274649 -0.00026217152 
  123000    1.0643142   -4.1233211   0.73399957   -1.9258895 2.7510432e-05 
  124000   0.89585675    -3.339191     0.777006    -1.330382 -9.7795051e-06 
  125000     1.532526   -3.6900934   0.45948712    -1.123383 -0.00020152126 
  126000   0.67623496   -3.7851211   0.50205002    -2.353248 -0.00023079816 
  127000    1.2569304   -4.1539857   0.56116979   -1.8645366 -0.000122518 
  128000    1.0571998   -2.9747415   0.57489438  -0.94619734 -0.00020996565 
  129000    1.1697943   -4.0319835   0.54046929    -1.883047 -4.2286335e-05 
  130000    1.2421516   -3.9820947    1.1894395   -1.0846967 -3.7226032e-05 
  131000    0.7577772   -3.3392208   0.73073071   -1.5665465 -0.00045901997 
  132000    1.0156702   -3.8417623    1.1201816   -1.3250342 -0.00061182649 
  133000     0.952034   -3.9566757   0.44637491   -2.2012541 -0.00015850427 
  134000     1.110581   -3.8636772   0.43282765   -1.9038008 0.00034733163 
  135000    1.3166804   -3.5655849   0.38036816   -1.3747811 -3.4203452e-05 
  136000    1.1010313   -4.1344356   0.53379435   -2.0867232 3.9608867e-05 
  137000    1.1771527   -4.0692999   0.55722323   -1.8934918 0.00015664784 
  138000    1.0195201   -3.4302296   0.78102874   -1.2473608 0.00094241877 
  139000    1.1194177   -4.0739842   0.35515163   -2.1796332 -1.6478983e-05 
  140000    1.1529343   -3.6676444   0.36143234   -1.7209274 -0.00014201033 
  141000    1.6027772   -2.9635898   0.52739377  -0.23237739 0.00051184497 
  142000   0.71771372    -3.666897   0.48235725   -2.1976833 -4.7597239e-05 
  143000   0.83560743    -4.100098   0.63437605   -2.3167618 -0.00010504332 
  144000    1.3570144   -4.0305588   0.53818395   -1.6264801 -2.0989207e-05 
  145000   0.56208475   -3.5017921   0.71423689   -2.0146886 0.00040886914 
  146000    1.2504626    -4.264462   0.20624136   -2.3388345 0.00026249806 
  147000    1.0203911   -3.9172042   0.19062025   -2.3235462 1.3210147e-05 
  148000   0.95039762   -3.7861917   0.15921075   -2.3201843 6.2621712e-05 
  149000   0.78053631    -3.858155   0.51045422   -2.2744634 0.00025382265 
  150000    1.0267049   -3.2616362   0.41069778   -1.4392191 0.00065141019 
  151000   0.50509145   -3.5571329   0.47607464   -2.3865575 0.00017795333 
  152000    1.0474733   -3.2300138   0.50473787   -1.2850002 -0.00022174093 
  153000   0.47069797   -3.4752431   0.74406409   -2.0839693 9.2551037e-06 
  154000   0.94674572    -3.894849   0.46301253   -2.1300611 2.7856475e-05 
  155000   0.78594715   -4.2143463   0.53140668   -2.6022623 4.7594361e-06 
  156000    1.0407815   -3.6085631   0.38314114   -1.7943474 0.00017011064 
  157000   0.72178292   -4.4443042   0.43188011   -3.0199725 -0.00041199996 
  158000    1.0620104    -3.996421   0.31677216   -2.2193846 -0.00021857629 
  159000     1.086831    -3.452754   0.74216443    -1.216197 -3.7396439e-05 
  160000    0.7136527   -3.7441115   0.50031953   -2.2625195 4.9900835e-06 
  161000    1.1906858   -3.8527525   0.54245187   -1.6731076 9.5632896e-05 
  162000    1.2891876   -4.1718392   0.30083867   -2.0983677 0.00034158165 
  163000    0.9990186   -3.6916923    0.2840375   -2.0340042 0.00019412905 
  164000    1.2122228    -4.164946   0.87622244   -1.6219172 -0.0003363989 
  165000   0.92699815   -3.9363453   0.47941138   -2.1823115 -0.00010867016 
  166000    1.1640055   -4.1190384   0.32686541   -2.1916655 0.00021256676 
  167000     1.014632   -2.8849873   0.25629843   -1.2335699 0.00023554222 
  168000    1.0125034   -3.9521055   0.20670046   -2.3532128 0.00033266437 
  169000    1.3618541   -3.8138346    0.5927349   -1.3485503 0.00012501186 
  170000    1.3479744   -2.9644705   0.22110176  -0.88990394 0.00020015506 
  171000   0.98941687   -4.2979332   0.40214284   -2.5353421 3.281412e-05 
  172000    1.0236072   -4.2660901   0.31058353   -2.5480466 -0.0002752066 
  173000   0.94680029    -3.614392   0.50978428   -1.8027573 4.8595063e-05 
  174000    1.0026265    -3.993914   0.43375107   -2.1815515 9.2263946e-05 
  175000    1.3931844   -4.0210445   0.65489614   -1.4505198 4.093066e-05 
  176000   0.72063923   -3.9966997   0.66064887   -2.3451719 -0.00019185944 
  177000   0.84370388   -3.7907006   0.24219849   -2.3884093 0.00021437167 
  178000      1.02504   -3.5276309   0.98247088     -1.13573 8.8557528e-05 
  179000   0.73311007   -3.7095217   0.42523543   -2.2762599 -0.00013049351 
  180000    1.0770077   -3.8279193   0.66222113   -1.6848126 -9.5851913e-05 
  181000    1.2234259   -4.0824545   0.46233464   -1.9379092 0.00024150737 
  182000   0.72635112   -4.1410213   0.53138339   -2.6109051 -0.00030628736 
  183000    1.1823932   -3.7320889   0.25701226   -1.8492861 0.00021073238 
  184000   0.98199933   -3.8282634   0.85930689   -1.6187075 -0.00038305918 
  185000    1.4610274   -3.8698547   0.42472175   -1.4362203 0.00030110414 
  186000   0.94817768   -4.0008945   0.58732573   -2.1098245 3.4691807e-05 
  187000    1.1600409   -3.4798255   0.99388838  -0.89088088 -0.00037739636 
  188000    1.2544946   -4.4192181   0.42219617   -2.2720918 3.2102933e-05 
  189000   0.86234061   -4.0600195   0.63495487   -2.2393463 -7.7152489e-05 
  190000   0.91260517    -3.970984   0.42602943   -2.2901224 0.00011808866 
  191000    1.0045884   -3.7558237   0.50289183   -1.8716227 -2.8694735e-05 
  192000   0.89420505   -4.0321112   0.26708316   -2.5354961 0.00016713451 
  193000    1.0515131   -3.3699011   0.34130081   -1.5827698 8.8875188e-05 
  194000    1.3598832   -3.5467589   0.29939505   -1.3775245 -0.00014213871 
  195000   0.73303205   -3.2114511   0.28947977   -1.9140523 0.00015842949 
  196000   0.71907426   -3.9674143   0.46994976   -2.5087375 -0.00023104192 
  197000    1.0887162   -3.9496678   0.59224169   -1.8604414 0.00032644965 
  198000    1.0009253   -4.2766633   0.59254957   -2.3078415 -0.00020331034 
  199000   0.88962442   -3.8707625   0.62411709   -2.0234118 -0.00037317878 
  200000   0.81103915   -4.1895685   0.60678589   -2.4676038 1.9065658e-05 
  201000     1.228002   -3.5595012   0.32438805   -1.5466105 9.8462203e-05 
  202000   0.83283145   -3.8126349   0.59877509   -2.0687166 0.00046457946 
  203000   0.90303853   -3.2099075   0.51688013   -1.4513494 -3.0975266e-05 
  204000    1.1233713   -4.2446523   0.69124072   -2.0087761 -0.00057184789 
  205000    1.2407556   -4.1831539   0.47118278   -2.0059323 -0.0002361888 
  206000    1.1988585   -4.0515756   0.41330953   -1.9898356 0.00011434289 
  207000   0.83177557   -4.0230366   0.39342096   -2.4859242 0.00029998606 
  208000    1.2767965   -3.0209304    1.0420593  -0.22327595 -0.00040701489 
  209000   0.91788681   -3.3309252   0.40229913   -1.6665317 -0.00026007706 
  210000    1.0578354   -3.6909953   0.19674256   -2.0397291 0.00042554438 
  211000   0.70746559   -4.2563263   0.49098673   -2.7925744 0.0001845792 
  212000    1.3426613   -4.2775564    1.0522482   -1.3791489 2.7363218e-08 
  213000    1.1440873   -4.2089174   0.54423825   -2.0915591 -0.0001553377 
  214000    1.0188316   -3.8311207    0.5525536   -1.8776736 -6.4944505e-05 
  215000     1.239086   -3.2986637   0.57626472   -1.0186558 -0.00016389877 
  216000   0.94197242   -3.7105058   0.17007663   -2.2452171 -8.6520999e-05 
  217000    1.1458771   -3.8496901   0.54123767   -1.7328714 0.0003969522 
  218000   0.73319567   -3.5935229    0.4537939   -2.1315849 -0.00020154949 
  219000   0.83981664   -4.0879174   0.45566049   -2.4775091 9.0429618e-05 
  220000   0.95648851   -3.8632317   0.43812473   -2.1099352 -0.00010220594 
  221000    1.1590659   -4.1458893   0.26181649   -2.2903572 7.5966388e-05 
  222000   0.88060201   -4.0485427   0.56677435   -2.2709406 -0.00014895638 
  223000    1.2773899   -3.2184403   0.72642387  -0.73560542 0.00017399093 
  224000    1.3840705   -3.8095529   0.51850414   -1.3879518 -5.9799394e-05 
  225000    1.2746404   -3.9497892   0.68485837   -1.5123003 3.0687072e-06 
  226000    1.3322538   -3.7994976   0.38803893   -1.5796098 -0.00038314465 
  227000    1.0707743    -4.505638   0.40716455   -2.6261587 -4.1239203e-05 
  228000    1.1636732   -4.4351553     0.920455   -1.9146497 -4.490605e-05 
  229000   0.83094543   -4.3126949    0.3406885   -2.8294565 0.00030961114 
  230000   0.62648851   -3.7702753   0.56602266    -2.342831 0.00032967429 
  231000    1.2780848   -4.2726436    1.1265733   -1.3887038 -0.0002883678 
  232000   0.73134119   -4.1645775   0.75458332      -2.4044 -0.0002413545 
  233000   0.48129438      -3.8361   0.69555318   -2.4787671 -2.1081461e-05 
  234000   0.79624976   -3.7168708   0.28550875   -2.3365186 -0.00032595886 
  235000    1.6609687   -3.7074694   0.54880338  -0.87483405 -0.00018367365 
  236000   0.49767136   -4.1771277   0.31898451   -3.1738451 -2.2937756e-05 
  237000    1.1266207   -4.1202037   0.30323457   -2.2678656 -0.00024984834 
  238000    1.1856416   -4.1095381   0.53562911   -1.9436518 4.3164854e-05 
  239000    1.0251505   -3.9161661   0.23854233   -2.2680418 0.00044114843 
  240000   0.99214076   -4.2107805   0.44449093   -2.4020961 -0.0002162034 
  241000   0.99608257   -3.5759358   0.22309039   -1.9832318 0.00025571585 
  242000   0.80439566   -4.0684592   0.37530921   -2.5871059 -0.00014856465 
  243000    1.0759579   -4.0883917   0.37399236   -2.2349572 -0.00019626131 
  244000   0.77037689   -3.7253246   0.42816443   -2.2378919 4.4357823e-05 
  245000   0.77046914   -4.2233264   0.58169651   -2.5822348 -0.00015889227 
  246000   0.78988151   -3.5176928   0.29143742   -2.1401683 0.00021892842 
  247000    1.4836676    -3.933703   0.60552916   -1.2881308 0.00013458278 
  248000    1.1505631    -3.255848   0.25376408   -1.4200597 1.407086e-05 
  249000    1.4514298   -4.1651626    1.1572286    -1.012218 -0.00034871232 
  250000   0.60835521   -3.7833643   0.91895011   -2.0279257 0.00038949792 
  251000   0.60333527   -3.4369052   0.49804821    -2.109271 9.3128491e-05 
  252000   0.74390723   -3.9414648   0.37626595   -2.5423264 0.00040629698 
  253000    1.1955293   -3.8052815   0.52230887   -1.6391199 0.00014851029 
  254000    1.3813993   -3.7980741   0.25113579   -1.6475142 0.00019605381 
  255000   0.91072266    -4.206237   0.30030713   -2.6536863 -0.00032670252 
  256000    1.0877684   -3.6812355   0.18389034   -2.0016637 0.00074215038 
  257000    1.1193769    -4.148905   0.48434603   -2.1254157 0.0001066446 
  258000    1.3423965   -3.8360159    0.7030312   -1.2871895 -0.00038859121 
  259000   0.85814975   -3.7269267   0.52058173   -2.0263891 -7.2817057e-05 
  260000    1.1253953   -4.0859632   0.16243391   -2.3761108 4.5989658e-05 
  261000    1.5858106   -3.2247091   0.41603149  -0.62818805 0.00034227292 
  262000   0.75243969   -3.8861962   0.28906562    -2.562526 -1.4197966e-05 
  263000    1.2126393   -3.8018485   0.87510677   -1.2593626 -0.00019697098 
  264000    1.0822543   -4.1457603   0.11815531   -2.5395053 0.00024331458 
  265000   0.98728041     -3.46707   0.56198778   -1.5475717 -0.00016854909 
  266000    0.7061287   -4.1315489   0.90029432   -2.2603276 -0.00014982945 
  267000    1.3497569   -4.1359454   0.33356982   -1.9464599 0.00013317732 
  268000    1.3257564   -3.8379521    0.4664999   -1.5485371 0.00030868566 
  269000    1.1389755   -3.9207729   0.46473315   -1.8899484 -0.00032014813 
  270000    1.2973763   -3.8552259   0.49739212   -1.5739414 2.0340004e-05 
  271000    1.1230296   -3.9877765   0.38204758   -2.0615632 2.5788949e-05 
  272000   0.72311382    -2.912292   0.33971178   -1.5782987 7.8828075e-05 
  273000   0.98678838    -3.309875   0.33258941   -1.6204515 0.00035085242 
  274000    1.4301377    -3.269668   0.46503627  -0.83819238 0.00020277612 
  275000   0.64919076   -4.0374923   0.31458597   -2.8302691 -0.00011731937 
  276000   0.81331545   -3.5166017   0.50056148   -1.8977315 0.00013621922 
  277000   0.47831355    -4.104884   0.84155269   -2.6056502 0.00040756888 
  278000   0.87510154    -3.709493   0.79441903   -1.7118094 -9.6629376e-05 
  279000   0.87936567   -3.7164547   0.55965784   -1.9476691 0.00073075522 
  280000    1.1796216   -4.3609635    0.4094852   -2.3294986 0.00018204644 
  281000    1.0644967   -3.3086908   0.76984239   -1.0751655 0.00049753221 
  282000   0.89679153   -4.1890019   0.52140132   -2.4345123 0.00011516338 
  283000     1.068679   -4.1570111   0.63019133   -2.0573861 -6.9887193e-05 
  284000   0.43943039   -3.5942859   0.69684758   -2.2932215 -0.00013906248 
  285000    1.3953258    -3.280225   0.42666312  -0.93498898 -0.00015463817 
  286000   0.82736004     -3.86221   0.73780334   -1.9867866 -0.00033825997 
  287000    1.0281205   -4.0276847   0.58940519   -2.0246138 -0.00011588878 
  288000   0.98756265   -3.9200013    0.5207727   -2.0413299 -0.00016452527 
  289000   0.66735827   -3.1747063    0.5208714   -1.7362172 -0.00046878317 
  290000   0.74018165   -4.1820517   0.17432971   -2.9899722 -6.3259974e-05 
  291000    1.4382685   -3.9037539   0.53371706   -1.3924176 -0.00017908899 
  292000    1.0476807   -3.4951441   0.55694321   -1.4976399 0.00012824129 
  293000    1.1077881   -4.0637423   0.42024069   -2.1202929 0.00016969154 
  294000     1.177077   -4.0212566   0.76472432   -1.6380514 -0.00020220622 
  295000    1.0518144   -4.0199979   0.37105969   -2.2026934 1.048289e-05 
  296000    1.3125743   -4.0879708   0.43453884   -1.8486423 0.00034425849 
  297000   0.58122092   -4.2633152   0.53622267   -2.9279137 -9.4422733e-05 
  298000   0.81467544   -4.2025102    1.2607191   -1.8216124 1.8011722e-05 
  299000    1.0358822   -4.1383861   0.48268811     -2.23136 -9.2622514e-05 
  300000   0.94873962   -3.8926221   0.38297117   -2.2051339 -0.0003404435 
  301000    1.1117001   -3.8892693   0.36832484   -1.9923568 0.00032005105 
  302000   0.74161954   -4.2649138   0.40727856   -2.8379084 -0.00018587384 
  303000   0.90740653    -3.521659   0.48893016   -1.7850449 -0.00045847474 
  304000    1.1042171     -4.21306   0.22353116   -2.4712304 3.323394e-05 
  305000   0.78615595   -3.4227145   0.64083425   -1.7009159 0.00028494445 
  306000   0.98897465   -3.9892521   0.18413699   -2.4452749 0.00011490902 
  307000   0.67799891   -3.6850352   0.24861189   -2.5041748 -0.00016144351 
  308000    1.6089122   -3.7967313   0.82531652  -0.75916054 -0.0001859703 
  309000    1.3112585   -3.4987269   0.27137185   -1.4243747 0.00085674414 
  310000    1.2764179   -3.8210591   0.40128915   -1.6646954 0.00026657734 
  311000   0.67305967   -4.1706716   0.41393416   -2.8312804 0.00010360533 
  312000   0.92297552   -3.1231755   0.67219385   -1.1818903 0.00011945843 
  313000   0.66259637   -4.1764261   0.65739657   -2.6079595 0.0002638438 
  314000    1.5059406    -4.256417   0.62666997   -1.5590787 6.6029703e-05 
  315000    1.2940837   -4.0344769   0.52889412   -1.7262176 -0.00013245385 
  316000    1.1154507   -4.1170777   0.53781342   -2.0455196 0.00013672028 
  317000   0.96120464   -3.5696111   0.50146169    -1.746493 0.00078822953 
  318000   0.91517996   -3.5560036   0.29430946   -2.0033217 0.00029314255 
  319000    1.1307477   -4.0856367  0.081075752   -2.4497829 -9.8434499e-05 
  320000    0.9095491   -3.9936194   0.38648433   -2.3565051 0.00035087065 
  321000    1.0141651   -4.3056342    1.1071999   -1.8039572 -9.6997083e-05 
  322000    0.6810792    -4.306983   0.95508417   -2.4154149 0.00014494476 
  323000    1.1562929   -3.7098913    0.1868232   -1.9331655 0.00017736303 
  324000   0.86212484   -3.4084404   0.67345463   -1.5495642 0.00027665899 
  325000   0.83590416   -3.7490175    0.4820239   -2.1176253 4.2120896e-06 
  326000   0.59043824   -4.2249756   0.49275368   -2.9203693 8.1085006e-05 
  327000   0.91546007   -4.0516309   0.35912065   -2.4337527 -0.00022288546 
  328000   0.74159941   -3.8706806   0.44723663   -2.4037448 -8.9745521e-05 
  329000     1.161588   -3.8449501   0.44619197   -1.8015745 0.00039714428 
  330000   0.96826959   -4.1204443   0.70906627   -2.0800073 0.00015065727 
  331000    1.3620411   -3.1599644   0.43414461  -0.85301334 9.0524996e-05 
  332000   0.91407908   -4.2243619   0.70220289   -2.2653003 0.00019184642 
  333000   0.77976672   -3.3556681   0.26401548   -2.0194734 0.00020377549 
  334000   0.89944082   -4.0777919   0.91582288   -1.9252379 -1.1707961e-05 
  335000   0.74441351   -4.3853352    1.1818241   -2.1799425 -0.00021266362 
  336000   0.92902621   -4.3356457   0.37763551   -2.6805991 -0.0002451373 
  337000    1.0908824   -3.5295925   0.66830126   -1.3613279 -0.00031160768 
  338000   0.80832551   -3.9696818   0.44630074   -2.4119335 0.00015819162 
  339000     0.871235   -4.0502162   0.43580761   -2.4164605 0.00023517893 
  340000   0.85812452   -3.6140381   0.27701835   -2.1570985 0.00047949495 
  341000   0.75205404   -4.0832279   0.25442271   -2.7947309 1.5805399e-05 
  342000    0.8178177   -3.6824089   0.39815788   -2.1597517 -6.1140775e-05 
  343000   0.94143205   -4.2363071   0.75391718   -2.1879208 -0.00029212327 
  344000    1.1946123   -3.3602385   0.40913765   -1.3085089 0.00031171487 
  345000   0.74963699    -4.144895   0.90753589   -2.2066082 4.3181682e-05 
  346000    1.0686661   -3.5196138   0.34306943   -1.7071285 9.3367031e-05 
  347000    1.1398434   -3.5942976    0.5932426   -1.4337704 0.00014858434 
  348000    0.9122734   -4.0511319   0.59299167   -2.2037643 -0.00031400406 
  349000    1.1320174   -4.0086321   0.24986028    -2.202248 8.7280604e-05 
  350000    1.1009081   -3.4867645   0.34303882   -1.6299771 -0.00011089542 
  351000   0.92007593   -4.0740795    0.4128325   -2.3961426 -3.3482409e-06 
  352000   0.76429201    -4.095694   0.47906822   -2.5657242 -0.00033596981 
  353000    1.2913565   -3.6037759   0.26770349   -1.5604573 -2.4373547e-05 
  354000   0.82386228   -3.9397876    1.2195016   -1.5874753 -7.669227e-05 
  355000     1.399762    -4.117742   0.74488428    -1.448185 0.00018429132 
  356000   0.76395925   -4.1618158   0.54866781    -2.562704 -0.00024176127 
  357000    1.1228017    -2.889835   0.53727234  -0.80871029 -0.00014971431 
  358000    0.8061237   -4.4392884    1.2986331   -2.0322352 -0.00020686603 
  359000    1.2495864   -4.0065534   0.72348164   -1.5648904 0.00035186209 
  360000   0.89978286   -3.4718736   0.38756102   -1.8471111 9.1993838e-05 
  361000   0.68987443   -3.7606272   0.12895219   -2.6830977 -0.00017978058 
  362000    1.1693968   -4.1574848   0.51160634   -2.0379579 0.00017449597 
  363000    1.0135773   -3.8706438   0.60348742   -1.8734877 -0.00026450539 
  364000   0.81959427   -4.1731417   0.64775395   -2.3984456 -0.00034654733 
  365000    1.0905174   -3.1021502   0.54319816   -1.0594906 -0.00029955238 
  366000    1.0780144   -3.6978712   0.79428658   -1.4213148 6.8725642e-05 
  367000   0.41371103   -3.7816503   0.88734276   -2.3254548 -0.00015598499 
  368000    1.2048228   -3.8020569   0.26233875   -1.8830868 -3.2425061e-05 
  369000    1.3086315   -3.8556644   0.28277903    -1.773517 -2.0479058e-05 
  370000   0.88833509   -3.9415329   0.37263989   -2.3474323 8.2845335e-05 
  371000    1.3397716   -3.1822945   0.63536254  -0.70474604 0.0005649147 
  372000   0.71049263    -3.704532   0.77602792   -1.9515767 -2.4359809e-05 
  373000   0.78613704   -3.8714153    0.4444958   -2.3459811 -0.00035691863 
  374000   0.88776237   -2.5514434   0.79890334  -0.53186681 0.00016553733 
  375000   0.82542333   -3.6781649   0.54749424   -1.9957136 -0.00025903806 
  376000    1.2546608   -4.3656244   0.49250913   -2.1479566 0.0003080795 
  377000   0.92981984   -3.5843438   0.38275027   -1.9230913 0.00019159229 
  378000   0.58548765   -3.3189365   0.18118547   -2.3327055 -0.00012064159 
  379000   0.95540736    -3.845219    0.8305912   -1.7009427 0.00032226976 
  380000   0.87636667   -3.6743424   0.32426319    -2.145075 -0.000163852 
  381000   0.96532625   -3.7293561   0.44373232   -1.9583002 0.00020599032 
  382000    1.0368259    -3.820875   0.33602427   -2.0592152 -0.0001477509 
  383000    1.0354442   -3.7411903   0.15886983   -2.1585846 -0.00012233641 
  384000     1.219365   -4.0669691   0.46257483   -1.9277674 0.00010922228 
  385000    1.0434905   -3.0226695   0.30430575   -1.2835644 -5.1350207e-05 
  386000   0.82540638   -3.9923567   0.45534914   -2.4020738 -1.1387818e-05 
  387000   0.92708276   -3.5345152   0.54446929   -1.7153071 0.00013803953 
  388000   0.44244217    -4.056749   0.31311801    -3.135273 0.00032039689 
  389000    1.4345287   -3.3454361   0.38959367  -0.98336544 -0.00020943846 
  390000    0.8731953   -4.0407903   0.28212227   -2.5580245 0.00050271762 
  391000   0.89748948   -3.8442799   0.80315338   -1.8070785 0.00041996773 
  392000   0.92251388   -3.7467138   0.73342585   -1.7448314 1.2815677e-05 
  393000    1.0101903   -3.3938695    0.3355356   -1.6693223 -0.00038551975 
  394000    0.9893823   -3.9126402     0.275782   -2.2764576 0.00027691495 
  395000    1.2061552   -3.9029892   0.54018367   -1.7043421 0.00027249127 
  396000   0.98438422   -4.4602362   0.45038625   -2.6563216 -0.00017113285 
  397000   0.79552739   -3.9628534   0.86194818   -2.0070551 -0.00021731401 
  398000   0.94450448   -4.1833092   0.40199022   -2.4826253 -0.00010996842 
  399000   0.77760191   -3.8022236   0.49119549   -2.2418255 -4.045425e-05 
  400000    1.0238142   -4.1700392   0.59251366    -2.169781 0.00024530803 
  401000    1.4159124   -3.7131373     0.459086   -1.3071718 -0.00023178407 
  402000   0.78562693   -3.8399159   0.41416595   -2.3455129 0.0004724322 
  403000   0.76990399   -3.7823776    0.6153618   -2.1083978 5.3049357e-05 
  404000    1.0338007   -3.4169315   0.43900554   -1.5564499 0.00045583305 
  405000    1.1013629   -3.7233581   0.41516075   -1.7938235 0.00047888089 
  406000   0.88422005   -3.3033078   0.12610569   -1.9613995 0.00019547261 
  407000   0.95738453   -3.8847655    0.6927371   -1.8756247 0.00012067329 
  408000   0.71723219    -3.856548   0.54886898   -2.3214847 -0.00043841869 
  409000   0.86596726   -3.9010511   0.28787087   -2.4224752 0.00014468759 
  410000   0.72839105   -3.5039145   0.54556325   -1.9568135 -9.7487299e-05 
  411000   0.51528251      -3.6042   0.37869691   -2.5169896 0.0001447449 
  412000    0.3578125   -3.9325514   0.81924675   -2.6213124 2.0848343e-05 
  413000   0.71831124    -3.771186   0.38049112   -2.4030169 7.5415314e-05 
  414000   0.57905944   -3.5330928   0.70826428   -2.0286218 -0.00018130539 
  415000    1.2282558   -3.2495018   0.57686351  -0.98378649 0.00019220579 
  416000    1.0124106   -3.9494105   0.32529582   -2.2320502 -0.00014132627 
  417000    1.1855106   -4.1279696   0.39324348   -2.1046491 6.3811838e-05 
  418000   0.90968564   -3.0064235   0.74610138   -1.0095044 0.00024595727 
  419000   0.92788843   -4.1028871   0.66712535   -2.1599151 -0.00029492501 
  420000   0.79811048   -3.7752899   0.47078991   -2.2070981 4.5707398e-05 
  421000   0.83245149   -3.8770312   0.63195623   -2.1004542 -5.0193193e-05 
  422000   0.97456758   -3.4503057   0.59787838   -1.5123969 -9.3095166e-05 
  423000   0.86780487   -2.9549897   0.72661982   -1.0351382 -0.00028816863 
  424000   0.91675996   -3.9907038   0.54903222   -2.1811266 0.00021567439 
  425000     1.155209   -3.8096176    0.3027019   -1.9185033 0.00010159458 
  426000     1.075506   -4.1143133   0.49171598   -2.1437766 -0.00010151421 
  427000    1.4187835   -4.1040987   0.67873449   -1.4745369 1.9397428e-05 
  428000   0.97839849   -3.6226671   0.23190443   -2.0454647 0.00017401615 
  429000   0.62090658   -3.9557474   0.13988916   -2.9621116 0.00070151194 
  430000    1.3794957   -4.1123986    0.4533661   -1.7622259 4.0274601e-05 
  431000    1.1260401   -4.3175129   0.58804692   -2.1811609 -0.00030945971 
  432000   0.86614028   -4.0397472   0.35291729    -2.495887 0.00022682654 
  433000   0.98379874   -4.2771117   0.88818707   -2.0362014 0.00010737195 
  434000     1.085009   -3.6698298   0.61240167   -1.5655407 0.00058941244 
  435000   0.84407975   -4.0112205   0.26964231   -2.5809685 5.4948573e-05 
  436000   0.99662211   -3.3077209    0.6337989   -1.3035666 0.00027788143 
  437000    1.3360442   -4.0694031   0.21274378   -2.0195985 -7.6910499e-05 
  438000   0.96590437   -3.2130969   0.17060243   -1.7143759 9.8663844e-05 
  439000   0.98562237   -3.9471857    0.6169908   -1.9749642 -0.00036090341 
  440000    1.1670897   -3.9869531    1.2282292   -1.1539757 -0.00024909309 
  441000   0.93620335   -3.8319942   0.47667251   -2.0680421 4.731915e-06 
  442000    1.1563255   -3.7533244   0.43764212   -1.7257347 -7.5818756e-05 
  443000    1.1237128   -4.1105412   0.51022063   -2.0552154 -5.7536941e-05 
  444000     1.196658   -3.6535271   0.82236653   -1.1857559 7.8004008e-05 
  445000    1.1585141   -4.0025391   0.40209085   -2.0074914 -0.00024181886 
  446000    1.0020801   -3.9327475   0.47597845    -2.078909 -0.00016121779 
  447000   0.93405787   -4.1133528   0.41824091   -2.4107823 -0.00032110544 
  448000   0.75052985   -3.6688122    0.7635637   -1.8732699 -0.00017665508 
  449000    1.3246857   -3.9247813   0.46954043   -1.6337981 -2.3896075e-05 
  450000    1.2689734   -3.9840414   0.93456298     -1.30464 -0.00055051206 
  451000   0.88106246   -3.0769752   0.88916401  -0.97635034 -0.00013147459 
  452000    1.0963432    -4.119043   0.30128717   -2.3102839 0.00014068734 
  453000   0.89795175   -3.6638373   0.46995473    -1.959199 -0.00015813564 
  454000   0.66762583   -4.2593378   0.53168928    -2.809663 0.00021804095 
  455000    1.4846503     -4.17226   0.63230277    -1.498563 -0.00014933375 
  456000    1.9634818   -4.1738581   0.32710039   -1.1469703 -0.00012421291 
  457000   0.61388156   -3.6680514   0.57467502   -2.2492893 0.00019484152 
  458000    1.2348612   -3.8952037   0.39701137   -1.8002582 -0.00019299897 
  459000   0.59989138   -3.5321327   0.49217715   -2.2151049 1.9361958e-05 
  460000    1.0838867   -4.1534183    1.0283141     -1.63476 -0.00034377668 
  461000   0.84995003   -4.2458582   0.68185251   -2.3953244 -0.00045002623 
  462000    1.0955732   -3.5035545   0.39401306   -1.6031282 5.0119154e-05 
  463000    1.0359618   -3.7369848   0.53706771   -1.7754696 -5.6326062e-05 
  464000   0.73123933   -3.7191209   0.26928603   -2.4443808 -0.00020839733 
  465000   0.81967476   -3.7286792   0.69139246   -1.9102339 -0.00056526854 
  466000   0.87380215   -3.4882817   0.31786086   -1.9689429  3.63521e-05 
  467000     1.054681   -4.3591178   0.52495385   -2.3839777 -0.00033491449 
  468000    1.1968274   -3.8592796   0.41359071   -1.8000513 0.00058487285 
  469000   0.98836591   -3.9920133   0.35016958   -2.2828406 0.00011786668 
  470000   0.73747705    -4.049637   0.48346144   -2.5521446 0.00034601811 
  471000   0.93063924   -3.7430347   0.52264766   -1.9407581 -0.00048634479 
  472000   0.67677731    -3.483948   0.22202108   -2.3313582 -0.00011556786 
  473000   0.72436525   -3.4181136   0.99292567   -1.4291857 -0.00054240489 
  474000     1.141278   -3.9016912   0.30572751   -2.0267065 0.00045221229 
  475000    1.0625052   -3.8118739   0.19830449   -2.1526248 0.00048799438 
  476000    1.6003099    -4.151383   0.39342802   -1.5575288 0.00028854576 
  477000   0.47755493   -4.0541915   0.27425847    -3.123295 0.00055256967 
  478000    1.1486573   -4.0919363    1.0708053   -1.4417272 -0.00052098564 
  479000   0.70950997   -3.7592711   0.42623771   -2.3574571 -0.00040391398 
  480000   0.61492341   -3.8376058   0.45543167   -2.5366544 5.9887853e-05 
  481000   0.83486585   -4.0573949   0.29581411   -2.6136403 7.0472833e-05 
  482000    1.2539339   -4.1161648   0.64034983   -1.7516559 -8.9656311e-05 
  483000   0.55297033   -4.0358182    0.2465631   -3.0289209 7.4153097e-05 
  484000     1.483008   -4.1044234   0.39867386   -1.6666135 -5.4483726e-05 
  485000    1.2826049   -4.0701059   0.58817183   -1.7183523 -3.6746333e-05 
  486000    1.3086403   -3.9746564   0.26534078   -1.9099352 -0.00025438408 
  487000    1.1762654   -3.8829169   0.23519707   -2.0303548 0.00035163966 
  488000   0.66847459    -4.011185   0.47735849    -2.614674 -7.1082179e-05 
  489000   0.81006745   -3.6530931   0.36333456   -2.1759157 3.2139638e-05 
  490000   0.99432441   -3.9842129   0.30206306   -2.3149538 0.00074659774 
  491000     1.168954   -3.8846013   0.18916011   -2.0881294 0.00025832753 
  492000    1.1568388   -3.9930849   0.75100258    -1.651429 -0.00020705653 
  493000    1.1127606    -4.450463   0.59005787   -2.3303593 -0.00018853377 
  494000    1.3005341   -3.8093113   0.37669593    -1.644381 0.00020246026 
  495000   0.90571951    -4.069324   0.56755395   -2.2564058 -0.00018678025 
  496000   0.88940558   -4.3428738   0.47541038   -2.6445308 0.00014079616 
  497000    1.3274432   -4.1262794    0.4177855   -1.8832595 0.00028390175 
  498000   0.80544693   -4.1934974   0.43403402   -2.6519739 0.00012632048 
  499000    1.0968804   -4.2883555   0.76219113   -2.0179538 -0.00042055525 
  500000   0.99302218   -3.9223967   0.46059353   -2.0963976 -0.00014404755 
  501000   0.98358895   -4.3091909   0.66978964   -2.2869665 -0.0002299464 
  502000    0.9304301   -4.1503478   0.26451043    -2.606496 0.00048894521 
  503000    0.9424642   -3.3943221   0.34754979    -1.750884 0.00043678419 
  504000   0.88594007   -4.0980961   0.59077531   -2.2891532 3.3924165e-05 
  505000    1.0176329   -3.9488136   0.75186474   -1.7977035 -0.00047261057 
  506000    1.1941845   -3.7719382   0.52678947   -1.6031451 -2.7876739e-05 
  507000    1.3300041   -3.6246194   0.56974013   -1.2261236 -0.00032569204 
  508000   0.56651485   -3.6586017     0.392112   -2.4875318 7.2545263e-05 
  509000    1.1119674   -3.8000806   0.32278804   -1.9483373 -8.3473429e-06 
  510000    1.2302908   -3.8444912   0.33706746   -1.8157738 -0.00040841698 
  511000   0.80345743   -3.8677347   0.51441254   -2.2485682 -0.00029881389 
  512000    1.5541194   -3.7844272   0.55087439   -1.0966387 -0.00013269486 
  513000   0.74250057   -3.7602884   0.35507447   -2.3842756 0.00024549431 
  514000    1.1090409   -3.8520769   0.71741886   -1.6097268 -0.00011094855 
  515000    1.2937342   -3.8532297   0.39650914   -1.6778361 0.00044615302 
  516000   0.61052913   -4.0261036   0.29601224   -2.8906138 -2.2131224e-05 
  517000   0.83553242   -3.9733917   0.94715141   -1.8773832 2.9729745e-05 
  518000   0.89964404    -4.057231   0.41549775   -2.4047227 4.7922796e-05 
  519000   0.79095111   -3.9007541   0.62141831   -2.1917781 0.00027562162 
  520000    1.6584174   -3.6678146   0.66832752  -0.71916311 7.3824282e-05 
  521000   0.86219156   -3.0388365   0.56067617    -1.292647 -7.2814726e-05 
  522000    0.9321332   -2.6822365   0.36845173   -1.0321016 0.00018473211 
  523000   0.78389936   -3.0054636   0.38984701    -1.537755 0.00010961916 
  524000   0.96709184    -3.942472    0.6368392   -1.9758815 -5.185025e-05 
  525000   0.78410164   -2.4966272   0.96920627  -0.44928122 -0.00031380416 
  526000    1.2461522    -3.422061   0.67468211   -1.0339197  3.77294e-05 
  527000    1.2266103   -3.0551453   0.36528433   -1.0032719 9.6687156e-05 
  528000    1.1225929   -3.6385009   0.21836322   -1.8765724 -4.1931605e-05 
  529000    1.0399395   -3.8763992   0.78385737   -1.6626251 -9.3279057e-05 
  530000    1.0681386   -3.7133872   0.34606023   -1.8986364 -0.0003474565 
  531000    1.0157427   -3.8467015   0.24412136   -2.2059339 -0.00016876157 
  532000   0.76642583   -3.4633433    0.6323484   -1.7771594 -0.0002217627 
  533000    0.8291921   -3.5974751   0.73014697    -1.727189 -0.0001349951 
  534000    1.3246426   -3.9580377   0.16581552   -1.9708386 0.00028872101 
  535000    1.6246465   -3.4312019   0.34586126  -0.85145169 0.00044135899 
  536000   0.70361566   -4.0727217   0.47015993   -2.6350903 5.7433018e-05 
  537000   0.95839863   -3.4216004   0.29459858   -1.8092037 -7.1034599e-05 
  538000    1.0342317   -4.2571028   0.22070326    -2.614331 -9.2515226e-05 
  539000    1.1343106   -3.8193429   0.51216692   -1.7474989 -1.9191182e-05 
  540000   0.96020012   -3.8561545   0.11869823   -2.4171812 2.4833905e-05 
  541000    0.9468519   -3.1601198   0.55323697   -1.3049615 0.00053891623 
  542000   0.94258232   -3.8795963   0.44826128   -2.1352843 -2.6473495e-05 
  543000    1.0059455   -4.2841008   0.53721091   -2.3637148 -0.00033891691 
  544000    1.3994945   -3.8190932   0.41806478   -1.4767235 0.00041140921 
  545000    1.5546133   -3.8750552     0.402569   -1.3348929 -1.5146345e-06 
  546000   0.66985752   -3.7952551   0.57475033   -2.2994507 -0.00022308371 
  547000   0.91826522   -3.8431677    0.4397082   -2.1408448 -0.00013584899 
  548000    1.1088448   -3.8590022   0.55602471   -1.7783158 0.00013505999 
  549000    1.2237847   -4.2410475   0.52294744    -2.035396 0.00019760457 
  550000   0.62799563   -3.7745504    1.1141221   -1.7969343 -0.00046721984 
  551000   0.67672078   -3.5694665   0.25750764   -2.3814677 0.00091473922 
  552000    1.0917675   -3.8719459    0.6691121   -1.7016535 3.8488161e-05 
  553000   0.75146403   -4.2321987   0.67907501   -2.5198607 0.00026360847 
  554000   0.74252838   -3.9684243   0.37574678    -2.571701 -0.00015065155 
  555000    1.2177872   -3.6931444   0.79116672   -1.2275203 0.0001427925 
  556000   0.99829827   -4.2777412   0.30668641   -2.5983947 -0.00029472432 
  557000   0.86384891   -3.9662953   0.68563108    -2.092872 -0.0002135248 
  558000   0.90754867   -3.5181227   0.49162106   -1.7786222 0.00021118715 
  559000    1.0474358   -4.2471939   0.42788924   -2.3790804 -0.00033500749 
  560000   0.72851038    -3.617762   0.60731852   -2.0087417 -0.0003413234 
  561000   0.95301608   -3.6086013   0.52302677   -1.7751774 -0.00047249279 
  562000    1.0112881   -3.7713464   0.79391031   -1.5869149 -0.00029885958 
  563000   0.90393532   -3.8956779   0.44588312   -2.2068837 -7.7300415e-06 
  564000    1.1153119    -3.657204   0.36546254   -1.7581876 0.00042121468 
  565000    1.4149714   -3.5924101   0.40917466   -1.2376498 1.8608133e-06 
  566000   0.65335577   -3.8122761   0.52012266   -2.3937892 -0.00020764014 
  567000   0.75671285   -3.9747099   0.86850392   -2.0657258 -0.00058016866 
  568000   0.83747376   -4.1349962   0.13251862   -2.8509512 0.00023751191 
  569000   0.88531926   -3.4216078   0.60315688   -1.6011369 -7.6691626e-05 
  570000    1.1915579    -4.005509     1.076179   -1.2909379 1.4080078e-05 
  571000   0.79633142   -2.9235253   0.71846964      -1.1101 0.00011073891 
  572000    1.0015575   -2.9122124   0.50182905   -1.0332418 -6.8265414e-05 
  573000   0.61659164   -3.6494361   0.29556259     -2.50606 5.7521968e-05 
  574000    0.7911478   -3.9667405   0.36326734   -2.5156449 0.00016151817 
  575000    1.4171779   -3.7067326   0.64665571   -1.1114573 0.00027670645 
  576000   0.85666293   -4.2684646    0.8257479   -2.2648051 -0.00050172845 
  577000   0.84962181   -3.7768411    1.0016114   -1.6069997 0.00010914796 
  578000    1.2617178   -3.9807329   0.23162903   -2.0142418 0.00047747368 
  579000    0.9533322     -4.14779   0.71582907   -2.1211292 -0.00042595281 
  580000    1.1619476   -3.2454785   0.23211682   -1.4156838 0.00033830089 
  581000   0.83969917   -2.5137126   0.38603365  -0.97309256 -0.00034648893 
  582000   0.55781948   -3.7186884   0.31718346   -2.6345032 0.00011658321 
  583000   0.88169059   -3.5754907   0.43695717    -1.926209 0.00016091103 
  584000   0.85034981   -4.3102262   0.84944977   -2.2915455 -0.00048862455 
  585000    1.1894832   -3.6215421   0.09716103   -1.8888417 3.9236351e-05 
  586000      1.24124   -4.0286077   0.57160807   -1.7502946 -0.00018270666 
  587000   0.79054071   -4.0062879   0.95049121   -1.9688032 -9.2148706e-05 
  588000    1.3072249   -4.4440361   0.35108512   -2.2955167 5.4953232e-05 
  589000    1.4546153   -3.6003961   0.42548644   -1.1748137 0.00016378424 
  590000   0.75791798   -3.6982442   0.64110263   -2.0150044 -0.00038301422 
  591000    1.1561817   -3.9274232   0.68996774   -1.6477056 -9.8841936e-05 
  592000   0.49459686   -4.3475218   0.33006808    -3.337383 4.9633508e-05 
  593000    1.0646175   -3.9256877   0.53596456   -1.9258741 0.00015822498 
  594000   0.84288243   -3.6541172   0.46933747   -2.0258164  0.000374042 
  595000    1.3976535   -2.9933017   0.70337882  -0.36814931 0.00014498737 
  596000   0.84451918   -3.4572934   0.90203749   -1.3940421 0.0001064455 
  597000   0.92670397   -3.9282431   0.59949215   -2.0545329 -0.00035209598 
  598000   0.89284989   -3.7712482   0.74792884   -1.7956507 -0.00021576999 
  599000   0.74518192   -3.6288578   0.75210755   -1.8521251 -0.00019323218 
  600000    1.1058483   -3.9471619   0.48338174   -1.9432388 -0.00022884683 
  601000    1.1146435   -3.8626453   0.28213225   -2.0478782 0.00012749815 
  602000     1.586829   -3.6410619   0.43327876   -1.0258933 -5.8075549e-05 
  603000    1.2260144   -3.5963946   0.27533282    -1.635292 0.00057717836 
  604000     1.187955   -3.9238138   0.53163373    -1.758742 7.6389974e-05 
  605000   0.95301411   -3.8387493   0.25689051   -2.2714644 0.00023912975 
  606000   0.95063835   -4.3050445   0.18885314   -2.8090636 9.0434703e-05 
  607000    1.3266106   -3.7705653   0.58841433   -1.3580614 0.00014623916 
  608000   0.86225141    -3.969004   0.12281387   -2.6605944 0.00027546903 
  609000    1.5102333   -4.1524028   0.37528832   -1.7005436 -0.00021061066 
  610000   0.98992518   -4.2704932   0.47511438   -2.4342317 -0.0002404567 
  611000   0.95702407    -3.704417     0.464654   -1.9238549 -5.5319474e-05 
  612000    1.0554678   -3.3833935   0.20887448   -1.7232507 7.283538e-05 
  613000    0.9265836   -3.7255863   0.76947495   -1.6820589 0.00029944385 
  614000    1.2022081   -4.0547358   0.83026522   -1.5714344 0.0003608796 
  615000     1.188196   -4.1444144   0.33435474   -2.1762901 2.078779e-05 
  616000   0.69117148   -3.3320227   0.68451903   -1.6971428 -0.00017406142 
  617000   0.69420854   -4.0194684   0.46776899   -2.5971627 -6.4920378e-05 
  618000    1.2225368    -3.461012   0.49212988    -1.287894 -0.00024965651 
  619000   0.95823484   -3.7164805    0.5378284   -1.8610791 0.00015349378 
  620000    1.3645942   -3.3547259   0.38445737   -1.0939515 0.00010613609 
  621000   0.91413385   -3.6128351   0.50311553   -1.8527855 -2.4537203e-05 
  622000   0.64357245   -4.0176416   0.18958657   -2.9431429 -2.8859351e-05 
  623000    1.1925059   -3.8675475    0.6930124   -1.5348394 -0.00016962609 
  624000   0.69226152   -4.0602408   0.69031181   -2.4180694 -0.00021214785 
  625000   0.66748137   -2.8758547   0.49304028   -1.4650275 0.00061837569 
  626000   0.96803579   -4.0991794   0.36321473   -2.4049154 0.00015172504 
  627000   0.94632965   -3.5823526   0.74352745   -1.5376219 -0.00038972386 
  628000   0.71950976   -4.2435686   0.38914568    -2.865097 0.00028971332 
  629000   0.70493928   -3.1208626   0.26790337   -1.8836677 9.550071e-05 
  630000   0.82889287   -3.9403672   0.38557347    -2.415066 5.8418173e-06 
  631000    1.0505839   -3.8094219   0.53304927   -1.8318197 9.4408689e-05 
  632000   0.97587819    -4.101729   0.38658086   -2.3733156 -0.00017342789 
  633000    1.1884678   -4.0865632   0.52299102   -1.9294289 -0.00018655954 
  634000    1.0915309    -3.952609   0.49413993   -1.9576141 -1.3157055e-05 
  635000    1.2919355   -3.5493052   0.41375156   -1.3591423 -0.00021695607 
  636000    0.9001447   -3.6068399    0.5707552   -1.7983857 3.5333829e-05 
  637000   0.97985896   -3.6007026   0.58355386   -1.6698426 -1.5752465e-05 
  638000   0.86313606   -3.8751957   0.22220789   -2.4661757 -4.081628e-05 
  639000   0.70393886   -3.9784235   0.40707753     -2.60343 -6.5292106e-05 
  640000   0.89879178   -4.0129512   0.72632407   -2.0507884 -0.00014025884 
  641000    0.8821718   -4.3518675   0.19659004   -2.9422912 6.8776042e-05 
  642000    1.0843267   -3.6917366   0.46120533    -1.739582 -0.00017645357 
  643000    0.7676765   -4.2506513   0.44464564   -2.7504504 -0.00013787078 
  644000   0.90693202   -3.7505786   0.34895643   -2.1545906 -7.8654666e-05 
  645000    0.5971293   -3.6303431   0.48314219   -2.3261481 -8.5439661e-05 
  646000    1.0999888   -3.2997536   0.40411477   -1.3831543 6.9247215e-05 
  647000    1.0876343   -3.9024472   0.22509187   -2.1818581 0.00020104062 
  648000    1.2838025   -2.9005167   0.42670721  -0.70858108 -0.00019970088 
  649000   0.76841469   -3.6464264   0.34864411   -2.2412121 0.00031229384 
  650000   0.49478272   -3.2629778    1.0372942   -1.5453574 -0.00055348103 
  651000    0.8040465   -4.1390497   0.43633441   -2.5971513 -0.00041347463 
  652000   0.95363599   -3.8901682   0.67612087   -1.9027979 -0.00027904871 
  653000    1.1150798   -3.7181578   0.38744086   -1.7974822 4.6801147e-05 
  654000    1.2024209   -4.1699689   0.70713428   -1.8095058 -0.00018758093 
  655000    1.1443144   -4.2701514   0.50994885   -2.1867702 -0.0001001321 
  656000    0.8262572   -4.4413928   0.62286056   -2.6824286 -0.00012045487 
  657000   0.76534109   -3.9627362   0.41071296   -2.4996792 -0.00017754192 
  658000   0.69711693   -3.9840497   0.40602939   -2.6194845 -0.00028609003 
  659000   0.98316467   -3.8027717   0.95648798   -1.4944323 -0.00015839638 
  660000   0.77557368   -4.1257251   0.58712499   -2.4721863 0.00033273838 
  661000   0.88624254   -3.8164605   0.25199345   -2.3458835 0.00031227965 
  662000    1.0621918   -4.2636339   0.20564017     -2.59748 9.4555569e-05 
  663000    1.0282079   -3.4222739   0.54260031   -1.4658877 -0.00010148054 
  664000    0.7061495   -4.2351002   0.53870758   -2.7254371 -0.00046576907 
  665000   0.57757872    -4.061995   0.50628548   -2.7615388 -0.00034831009 
  666000    1.2695187   -3.8445236   0.64993488   -1.4490006 0.00014734782 
  667000   0.98997469   -4.3587977   0.55083083   -2.4467517 -4.4487439e-05 
  668000    1.5654872   -3.8665032    0.2226829   -1.4912755 0.00068165173 
  669000    1.4025551   -3.0152627   0.39369979  -0.69304961 0.00019681602 
  670000    1.4307373   -4.0251976   0.52904384     -1.52889 -3.916331e-05 
  671000    1.0602336    -4.290314   0.48605159   -2.3464412 -0.0002003622 
  672000   0.82013439   -2.6757534    0.7469814  -0.80108719 -0.00017662337 
  673000    0.8238479    -4.104876   0.88642805   -2.0856571 3.5553502e-05 
  674000   0.89899786   -3.6185899   0.44862909   -1.9338387 0.0001696418 
  675000     0.875696   -3.6049569   0.60650489     -1.79437 -8.6835063e-05 
  676000   0.75523311   -3.7012592   0.24148323   -2.4213304  0.000291236 
  677000   0.92573594    -3.765146    1.1350054   -1.3572537 0.00035324769 
  678000    1.0463439    -4.129766   0.53772496   -2.1533182 0.00013883437 
  679000    1.1374586   -3.5799404   0.27312016   -1.7428147 -6.158909e-05 
  680000    1.0394384    -3.441626   0.68033357   -1.3320646 -0.00026586061 
  681000   0.92626052   -3.7738769   0.53162583   -1.9686429 -0.00016449597 
  682000   0.86741259   -3.9494565   0.46191301   -2.2948512 -0.00024849565 
  683000   0.83485436   -3.9131763   0.56478977   -2.2004618 0.00043276042 
  684000   0.69979364   -3.8062593   0.21248056   -2.6315625 -0.00024721304 
  685000    1.3594259   -3.2364333   0.67616761  -0.69105504 4.249269e-06 
  686000   0.97870808   -4.4026533   0.54989442   -2.5070353 -2.8838491e-05 
  687000    0.9550356   -3.6478418   0.34299381    -1.991674 9.9409076e-06 
  688000    1.2597545   -4.0929902   0.72127675   -1.6395509 -0.00025068298 
  689000   0.69729999   -4.0501866   0.91844097   -2.1729582 -0.0002125766 
  690000     0.717445   -3.0895874   0.50143284   -1.6016677 9.7606413e-05 
  691000   0.51955064   -4.1676977   0.70094561     -2.75237 -8.9744762e-05 
  692000    1.2178851    -3.593457     0.265896   -1.6529691 -4.2471028e-05 
  693000    1.0248073   -4.1783776    0.5852039   -2.1840637 -0.000255775 
  694000    1.1757716   -3.7147749   0.54349301    -1.554596 0.00019544588 
  695000    1.2093674   -3.4497328   0.33544558   -1.4514071 0.00023238214 
  696000   0.78619382   -3.5849224   0.55113377   -1.9527721 -0.000173223 
  697000   0.62682104   -4.3486662   0.38222367   -3.1045636 -4.7910554e-05 
  698000    1.5216586    -4.033389   0.59703813   -1.3440703 -0.0002417831 
  699000    1.1907344   -4.2702127   0.43538869   -2.1975642 -7.8776009e-05 
  700000    1.3900018   -3.8083482   0.54505742   -1.3520383 0.00039560089 
  701000   0.39279251   -3.9949682   0.50039288   -2.9544857 -7.3192007e-05 
  702000    1.2040244   -3.8705669    0.5067558   -1.7082776 -0.00025573151 
  703000   0.73494882   -4.0223755   0.66200445   -2.3498164 8.2180063e-05 
  704000     1.279126   -3.5023943   0.48827246   -1.2553237 -0.00045374505 
  705000    0.9901736   -3.8770103    0.6024667   -1.9130549 7.466121e-05 
  706000    1.1389005   -4.3481405   0.45564103   -2.3265113 -0.0002074202 
  707000    1.2122713   -3.5465684   0.28565435   -1.5940409 0.00017974944 
  708000    1.0859566   -4.1697934   0.46594872   -2.2106544 0.00030140351 
  709000    0.8795767   -4.1056304   0.53974351   -2.3564689 0.00034250412 
  710000    1.0601317   -4.1797571   0.43890747   -2.2831686 -0.00027658452 
  711000    1.1444923   -3.7226409    0.1553179   -1.9936461 5.2994217e-05 
  712000    1.3765277   -4.4146503   0.51600546   -2.0059193 4.428367e-05 
  713000   0.90767538   -3.9360718   0.67677956   -2.0112386 -0.00031390088 
  714000     1.013413   -3.7061192   0.88119056   -1.4314858 -0.00018181244 
  715000    1.1495644    -3.903727   0.55807019   -1.7650058 0.00014974852 
  716000     1.231454    -3.911804   0.65674037   -1.5618144 -0.00035215479 
  717000    1.1160704   -3.6686712   0.54125644    -1.592818 0.00017852239 
  718000   0.62560319   -4.1080324   0.61409661   -2.6337314 -0.0002145276 
  719000    1.2548269   -3.9195158   0.51320853   -1.6809202 -0.0001792006 
  720000   0.90239078    -4.073116   0.54130221   -2.2910264 5.4058084e-05 
  721000    0.9652123   -3.6927482   0.37544049   -1.9901408 0.00045833375 
  722000   0.49068814   -3.7093807   0.54577156   -2.4889129 0.00017665098 
  723000    1.2246205    -3.853218   0.37738865   -1.7919762 0.00049132142 
  724000    1.1039646   -3.3178434   0.35933444   -1.4405577 -1.7293808e-05 
  725000   0.92885892   -4.2215113   0.36206688   -2.5822634 4.9098226e-05 
  726000    1.2211033    -3.526483   0.57253294    -1.274933 -0.00041986614 
  727000   0.87388582   -3.8992273   0.37064308   -2.3269912 0.00021063241 
  728000   0.97543647   -3.7417574   0.48675525    -1.913777 -9.3242735e-05 
  729000    1.2335794   -3.8767115   0.23095303   -1.9495868 -0.00012312917 
  730000   0.76111296   -4.2108182   0.33934946   -2.8249384 -0.00040220376 
  731000   0.93634682   -3.7982425   0.61928195   -1.8914837 -0.00024345461 
  732000   0.81312922   -4.0923337   0.75639413   -2.2178869 -0.00010966953 
  733000   0.92892517   -4.1291094    1.0372204   -1.8146169 0.00033783812 
  734000   0.66392928   -4.1541198   0.56901404    -2.672203 -6.190636e-05 
  735000    1.2397109   -4.1186818   0.34444251   -2.0696368 0.00043527557 
  736000   0.73479182   -4.2225428   0.90012889   -2.3120751 -5.3512124e-05 
  737000   0.90059412     -3.83281   0.61499655   -1.9794965 -0.00018290768 
  738000    1.1650008   -3.4000097   0.35651231   -1.4416213 0.00016810717 
  739000    0.9798672   -4.4616278   0.35287887   -2.7614316 -0.00017549467 
  740000   0.99073992   -3.3776094    0.4115496   -1.6037924 -0.00018488973 
  741000    1.2028184   -3.1460636   0.35985626   -1.1323321 6.8620604e-05 
  742000   0.75915023   -3.8516497   0.48303956   -2.3247786 -3.5654145e-05 
  743000    1.3151164   -4.2464844   0.43086012   -2.0073392 0.00030574688 
  744000    0.7956822   -3.8916266   0.51517623   -2.2823874 0.00033839943 
  745000   0.95722335   -3.7132061   0.44356765   -1.9534564 -0.00036277506 
  746000   0.66297789    -3.168107   0.50843647   -1.7480759 2.6043727e-05 
  747000   0.96671496   -3.9936643   0.51239729    -2.152034 -0.00017075953 
  748000   0.78801395   -3.6470545   0.74645574   -1.8170796 3.3707854e-05 
  749000   0.73387633    -3.279233   0.43620457   -1.8339485 -6.4728857e-05 
  750000   0.99872054   -3.8379646   0.22493759   -2.2397862 -0.00013326156 
  751000    1.0384559   -3.7568954   0.49451734   -1.8345012 -0.00037004572 
  752000   0.72695799   -3.3774485   0.62509971   -1.7527815 0.00022755739 
  753000   0.98326139   -3.7527244   0.41599152   -1.9847485 -0.00020853949 
  754000   0.94663156   -3.6227782   0.30396744   -2.0171923 -4.8752791e-05 
  755000   0.76792451   -3.8391498    0.8351304   -1.9481232 -9.7264773e-05 
  756000    1.0648546   -3.6959074   0.21431476   -2.0174176 0.00010393194 
  757000   0.73680292   -4.3089833   0.40304324   -2.8928361 5.4099807e-05 
  758000    1.3366947   -4.1188945   0.66219936   -1.6187399 -0.00029117102 
  759000    1.1317287   -4.1048593   0.66930464   -1.8794277 -0.00010296556 
  760000    0.5508651   -3.6591436   0.57627765   -2.3254264 -0.00011845157 
  761000   0.94076506   -3.0809169   0.45526054   -1.3321044 8.0184144e-05 
  762000   0.91687193   -3.9310647   0.55215658   -2.1182092 -1.355576e-05 
  763000   0.37560465   -4.0385367   0.54691857   -2.9751618 -4.8390129e-05 
  764000    1.0015814   -4.1366866   0.45322404   -2.3062881 0.00010495559 
  765000   0.69893863   -3.8815453   0.83159693   -2.0889077 -0.0001662173 
  766000    1.2560209   -3.4965001   0.75507221   -1.0143992 0.00054268645 
  767000   0.85487916   -3.4891186   0.58296116   -1.7306986 -0.00014919996 
  768000    1.0381849   -3.6918293   0.24757538   -2.0167496 -8.0123536e-05 
  769000    1.3429849   -3.3637753    1.0087214  -0.50844963 -0.00024119176 
  770000    1.0882788   -3.1411409   0.57447133   -1.0702862 -5.9885176e-06 
  771000   0.50561164   -3.7012408   0.45331306   -2.5527117 0.00036441331 
  772000   0.89514216   -4.2678742   0.40000003   -2.6370537 -8.9639677e-06 
  773000   0.85024807   -3.7914948   0.45173768    -2.170666 7.5996799e-05 
  774000   0.70286359   -4.1571021   0.23592649   -2.9547382 0.00040079302 
  775000   0.91339285   -3.0375466   0.22229438   -1.5593371 0.00076300604 
  776000    1.0846882   -4.1571575   0.63263909   -2.0330721 -2.0457914e-05 
  777000    1.4225013   -3.9223564   0.96573034   -1.0006867 0.00013864399 
  778000   0.81787232   -3.9650423   0.52903964   -2.3114282 0.00041534808 
  779000   0.75852958   -4.0009715    0.7310988   -2.2268945 -0.00011954029 
  780000    1.2512388    -3.354758   0.50631568   -1.1279889 -0.00019779894 
  781000   0.86408686   -4.0815815   0.33143217   -2.5620299 -0.00026156545 
  782000   0.81307585   -3.8914458   0.35909578   -2.4143707 -0.00034518239 
  783000    1.0602183    -3.573372   0.40706527   -1.7085066 -0.00024354773 
  784000   0.95268419     -3.40446   0.39155736   -1.7029618 -5.9794104e-05 
  785000   0.75093693   -4.0037036   0.76911335    -2.202052 -0.00010038717 
  786000   0.97515338     -3.75983   0.38832052   -2.0306736 -0.00011894242 
  787000    1.1564846   -4.0349019   0.49268336   -1.9520522 0.00025551809 
  788000   0.99537763   -3.7511586   0.57693557   -1.8055788 -0.00014352683 
  789000   0.80146864   -4.3564376   0.60010675   -2.6543115 -0.00020620931 
  790000   0.84252954   -3.8255469    0.5370415   -2.1300273 0.00042360005 
  791000    1.3817993   -3.7394177    1.3697475  -0.46969621 -0.00029717344 
  792000    0.7604223   -4.1879717   0.49081426   -2.6515768 -0.00025093603 
  793000    1.2355765   -2.7222504   0.39264606  -0.63068662 -0.00013263718 
  794000    1.1352522   -3.5435266   0.52661738   -1.4559374 4.6065957e-06 
  795000   0.76257323   -3.8118863    0.2388568   -2.5244913 0.0002103029 
  796000    1.1370141   -3.5971564   0.59922245   -1.4345395 0.00023609128 
  797000   0.69246925   -4.1157853   0.54666237   -2.6169777 -0.00021521153 
  798000    1.1839293   -4.1572296    1.0101369   -1.5191899 -6.2261589e-05 
  799000   0.79472866   -3.9341812   0.38209948   -2.4593298 -0.00016256999 
  800000    1.0122951   -3.7938894   0.50903351   -1.8929502 -0.00020752638 
  801000    1.2993254    -3.982019   0.19913994   -1.9963066 -4.8302677e-06 
  802000    1.1013953   -3.5539565   0.44081625   -1.5987218 0.00013188746 
  803000    1.0149233   -3.3140499   0.28648183   -1.6320486 5.4311995e-05 
  804000   0.79512521   -3.9319207   0.26317336   -2.5754501 7.9511275e-06 
  805000   0.91968578   -4.1166203   0.62874339    -2.223309 -0.00048163313 
  806000    1.2573898   -3.7521786   0.85896219   -1.1643055 -0.00048555728 
  807000    1.3154758    -4.039426   0.19327642   -2.0373703 0.0005665678 
  808000   0.70249605    -4.102427    0.5309366   -2.6055583 -0.00011122419 
  809000   0.78372464   -3.7864029   0.90546744   -1.8033141 -0.00062591364 
  810000   0.82883538   -4.0223048   0.11735481   -2.7653014 0.00042394451 
  811000    1.4273304   -3.6786866   0.28258028    -1.433527 0.00012027068 
  812000    1.0418502   -4.2056094   0.36284768   -2.4102177 0.00019934128 
  813000   0.67309592   -3.6944599   0.31115234   -2.4578006 0.00020158786 
  814000   0.97903562    -3.821307   0.98826438   -1.4868687 -9.3801217e-05 
  815000    1.1182146   -4.3219687     0.537636   -2.2467876 1.2504154e-06 
  816000    1.1252479   -3.6702783   0.57461329   -1.5484491 -0.00033201699 
  817000   0.85336333   -3.8183247   0.29856859   -2.3463816 -0.00031299148 
  818000    1.0878449   -4.0852607   0.35479684   -2.2346771 0.00026535464 
  819000    1.0596045   -3.6366654   0.59711306   -1.5825961 -0.00038482303 
  820000    0.8356405   -3.8322368   0.23129344   -2.4519376 0.00034157754 
  821000    1.0839689   -3.2961976   0.62237414   -1.1833663 -0.00016203117 
  822000   0.85123196   -4.2517227   0.38654147   -2.6947373 -0.0001293684 
  823000   0.68891156   -3.5806164   0.78080862   -1.8525544 -5.9185073e-05 
  824000   0.99769209   -3.7152164   0.56272006   -1.7806697 -6.9891932e-05 
  825000   0.81877761   -4.0361466   0.24446261   -2.6658648 9.8542816e-05 
  826000   0.81757505    -3.635694   0.42046833     -2.09106 -3.5455346e-05 
  827000    1.1360577   -3.8855301   0.92182635   -1.4016244 -0.00035822212 
  828000    1.2733219   -4.3726744   0.78713394   -1.8347229 5.7059142e-05 
  829000   0.69006548   -3.8409099    0.3817766   -2.5102933 -1.1957421e-05 
  830000    1.0995395    -3.866074   0.49848936   -1.8557179 -0.00016148888 
  831000   0.71598823   -3.7839323   0.37675814   -2.4226903 0.00031226217 
  832000   0.77169827   -3.9337706    0.6220121   -2.2506733 -0.00027659953 
  833000   0.84618293    -4.526665    1.2486024   -2.1145611 -0.00060277542 
  834000   0.81591348   -3.9861801   0.30954675   -2.5547523 0.00014582495 
  835000     1.076203   -3.9738404   0.20960921    -2.284452 -2.9891042e-05 
  836000   0.65540809   -3.8390635   0.82477763   -2.1130998 3.8810287e-05 
  837000   0.88403498   -4.2639851   0.39244064   -2.6559964 6.2848919e-05 
  838000   0.85324242   -3.4199091   0.50479852   -1.7419022 4.414648e-05 
  839000    1.3287656   -4.1834731   0.48817943    -1.868241 -8.8043019e-05 
  840000    1.1062952   -4.1559465   0.40300316   -2.2317874 -0.00013480907 
  841000   0.83539746   -4.0470314   0.35994645   -2.5384135 -0.00022181954 
  842000     1.087261   -4.1554436   0.77925542   -1.8812043 -0.00031376336 
  843000     1.012821   -4.1142205   0.42456466   -2.2970269 0.00038098456 
  844000   0.53386956   -3.1763876   0.43446464   -2.0078523 0.00062685285 
  845000    1.2871974   -3.6033217   0.34670407   -1.4867212 6.3221574e-05 
  846000   0.72919779   -3.9146176   0.47510666   -2.4368639 0.00010745373 
  847000   0.89992359    -3.967824   0.93993409   -1.7904949 -0.00036333041 
  848000   0.92061363   -4.3511558   0.47475783   -2.6105542 -0.00029019526 
  849000     1.003214   -3.8512917   0.60726562   -1.8646068 -0.00013076703 
  850000    1.0460339   -4.2118651   0.60485767   -2.1687108 -0.00018857827 
  851000   0.96089806   -3.9567313   0.62532629   -2.0101702 -0.00053417512 
  852000    1.1480404    -4.274754   0.71677679   -1.9794217 -0.00043781106 
  853000   0.71958045   -4.1382606   0.20134839   -2.9474891 -0.00013753981 
  854000    1.1308358   -3.8171679    0.2997191   -1.9625496 -3.1755695e-07 
  855000   0.94972528   -3.9993988   0.48970464   -2.2038219 4.2953145e-05 
  856000   0.92081167   -3.7416093   0.46381881   -2.0116744 0.00028922989 
  857000   0.96381943   -3.4756262   0.59792028   -1.5524542 7.0934855e-05 
  858000   0.75292335   -2.9706345   0.36028922   -1.5750757 0.00047044066 
  859000    1.3853274   -3.9550163   0.70714635   -1.3430449 -0.00025881776 
  860000   0.73191349   -3.5724595   0.68194079   -1.8841377 1.6874514e-05 
  861000    0.6128884     -3.43139   0.42100517   -2.1676633 -6.6159943e-05 
  862000    1.3497506    -3.970893   0.79368289    -1.321303 -0.00010916099 
  863000   0.77426397   -3.9424045   0.31624709   -2.5615444 -2.7449129e-05 
  864000   0.77926924    -4.107164   0.34953176    -2.686137 -0.00024302544 
  865000   0.95310797   -3.8691206   0.34420226   -2.2143948 -1.4326658e-05 
  866000   0.66128456   -4.0990453    0.2229906   -2.9667885 6.0326922e-05 
  867000   0.64353048   -4.1277276   0.52607384   -2.7167994 -0.00010534473 
  868000    0.8587743   -3.7574695   0.57103648   -2.0056183 -0.0002789389 
  869000    0.9913257   -4.0508363   0.42156078   -2.2662027 -0.00036453801 
  870000   0.75933808   -3.7406012   0.21294184   -2.4835695 9.0580099e-05 
  871000   0.90524982   -3.7037984   0.74431648   -1.7147634 4.1009331e-05 
  872000    0.9182359   -4.2499864    0.6573063   -2.3301057 -1.3544715e-05 
  873000    1.2808927   -4.1786353   0.32874392   -2.0886639 0.0002458244 
  874000   0.93705582   -4.0947125   0.57358167    -2.232679 -0.00013874199 
  875000    1.5079157   -3.9288858   0.40768782   -1.4478139 0.00028679995 
  876000   0.59029305   -3.6689744   0.34768141   -2.5096401 0.00011057214 
  877000    1.2941037   -4.2231027   0.40923836   -2.0344717 0.00012380377 
  878000    1.2822302   -3.4642503   0.32959993   -1.3715839 -0.00041422275 
  879000   0.73688303   -4.2650128   0.30837247   -2.9434262 -1.4063272e-05 
  880000    1.1072582   -4.0923809   0.43130421   -2.1385967 0.0001666335 
  881000    1.1213815   -3.3846518   0.60642646   -1.2363258 0.00035965821 
  882000    1.0577823   -4.3195187   0.37245949   -2.4926086 -0.00018306789 
  883000    1.1883153   -4.1472007   0.62998343   -1.8832837 -0.00032838261 
  884000   0.94761696   -4.1031652   0.58509595    -2.215096 5.1165107e-05 
  885000    1.5503871   -3.7302426   0.63912583  -0.95933448 0.00010375236 
  886000   0.80557108   -3.8244275   0.32556449   -2.3912027 -0.00026036669 
  887000   0.85579365   -4.0170308    0.4210342   -2.4192803 1.2472131e-05 
  888000   0.78451678   -3.7081977   0.27525711     -2.35423 0.00028019191 
  889000    1.1390483   -4.0647456   0.66416904   -1.8343852 -0.00049220776 
  890000   0.97909762   -3.5004407   0.49950552    -1.654676 -3.4562277e-05 
  891000    1.3705502   -4.2495939   0.32008801   -2.0449994 -0.00036444018 
  892000   0.92485427   -3.7578441   0.45789136   -2.0282781 1.5921198e-05 
  893000   0.56833368    -4.147175   0.84567117    -2.520045 0.00011776861 
  894000   0.80443009   -3.9550409   0.73525431   -2.1136952 -0.00015201578 
  895000   0.67825797   -4.1856852   0.67442333   -2.5786572 -7.5733726e-05 
  896000    1.0728532   -3.9760709   0.28016262   -2.2207351 0.00020853265 
  897000   0.96020237   -3.7752279   0.42311814   -2.0318315 -4.5349862e-05 
  898000    1.1099702   -3.8484211   0.43711475   -1.8850974 0.0004733914 
  899000   0.90843164    -4.366438   0.74011575   -2.3772287 -0.00015160023 
  900000   0.83115314   -4.0629667   0.77148919   -2.1486419 -0.00011254336 
  901000   0.69773906   -3.8587354   0.29632338   -2.6030208 -0.0002478558 
  902000   0.89441116   -4.0221992   0.38504381     -2.40734 0.00025793267 
  903000    1.0326079   -3.8798336   0.52307743   -1.9369203 -0.0001057495 
  904000    0.6167067   -4.2547334   0.53052542   -2.8762363 9.632438e-05 
  905000   0.95852286   -4.0024068   0.36948142   -2.3149565 -7.6777617e-05 
  906000   0.70636059    -3.910067   0.21049801   -2.7283232 0.00013405098 
  907000    1.1268783   -3.7799106   0.76317768   -1.4672753 -0.00025399676 
  908000    0.8548221   -4.2328045   0.65305269   -2.4043714 -0.0003205109 
  909000    1.0405243   -4.1758321   0.24079173   -2.5043195 -7.7673407e-05 
  910000    1.4259827   -3.8568537   0.35560738   -1.5405201 9.6438783e-05 
  911000    1.0425337   -3.9535937   0.57026414   -1.9498458 -0.00021350616 
  912000    1.3334967    -3.482847   0.43710196   -1.2121871 -8.6410647e-05 
  913000    1.2399165   -4.0215453   0.45456021   -1.8620999 0.00013711406 
  914000   0.92593223   -4.4813721   0.44145399   -2.7667613 0.00014380516 
  915000    1.3457972   -4.2782235   0.33633278   -2.0914196 0.00022679916 
  916000   0.94083967   -3.7638206   0.68800958   -1.7821565 0.00012547885 
  917000   0.98512139   -3.6932098   0.56796939   -1.7706985 -0.00028474391 
  918000   0.59001284   -3.8103735   0.29692235   -2.7021835 -6.8051231e-05 
  919000    1.2517824   -3.8735743   0.69812613   -1.4542474 -0.00023819059 
  920000    1.3830446   -4.1972757   0.20647988   -2.0891095 0.00013274558 
  921000    1.2306523   -3.9117071    0.4803602      -1.7392 -0.00022682282 
  922000   0.91111491   -3.6456731   0.27558029   -2.1173098 2.6458755e-05 
  923000    1.5493627   -3.7816775   0.45651499   -1.1947889 -3.5404661e-05 
  924000    1.0818467   -3.7838567   0.45947634   -1.8368411 3.0450588e-05 
  925000    1.2083255   -3.6163627   0.36939388   -1.5855211 3.4746122e-05 
  926000   0.65851027   -3.8658416   0.61354175   -2.3468482 -0.00029066252 
  927000    1.0414729   -3.0742917   0.32852103   -1.3137455 0.00014189739 
  928000   0.82199245   -4.1610548   0.80278197   -2.2280332 -0.00010514677 
  929000   0.82330975   -3.8919798   0.50330555   -2.2566233 -2.9542773e-05 
  930000    1.2567413   -3.5272214   0.87813651  -0.92106562 -0.00017164434 
  931000   0.78454266   -4.0868479   0.55689503   -2.4512067 -0.00014811478 
  932000    1.0658487   -3.3988381   0.18792739   -1.7453688 0.00013967596 
  933000    0.9367599   -3.6568326   0.69990824   -1.6688795 -0.00028725049 
  934000   0.75388934   -3.1954471   0.38775673   -1.7710925 -0.00015548386 
  935000    0.7054461   -4.0115687   0.23091036     -2.81067 -0.00021311458 
  936000   0.89557275   -4.3172471   0.55697319   -2.5288614 -0.00040389579 
  937000    1.0932341   -3.9916206   0.26285452   -2.2255692 4.2055888e-05 
  938000    1.1475495   -3.1875277   0.44393984   -1.1657073 0.00011271327 
  939000   0.91477834   -3.8505972   0.49309861   -2.0996784 3.6906502e-05 
  940000   0.75689423   -3.6188938   0.53821597   -2.0399482 -0.00025888961 
  941000    1.7231862   -4.0378839   0.36017531   -1.3083275 0.00023912911 
  942000     1.055026   -3.4338382   0.30594808   -1.6772294 -0.00026527968 
  943000    1.4525615   -4.2416109   0.59871975   -1.6456191 4.2891235e-05 
  944000    1.1761685   -4.0790204   0.58680326   -1.8749855 -0.00020206873 
  945000   0.78715515   -4.4565998    0.3278251   -3.0464364 -0.00024461277 
  946000   0.76924826   -3.7104911   0.21815109   -2.4346236 0.00022157472 
  947000    1.5213858   -3.4742267    0.5390107  -0.84331058 0.00014234425 
  948000    1.0642918   -4.0866415   0.30501891   -2.3182214 0.00013776957 
  949000   0.90541934   -4.1416865    0.5456648   -2.3510701 -0.00014005964 
  950000    1.0066333   -4.4746171   0.47803284   -2.6124635 8.527605e-05 
  951000    1.0398752   -4.2101679   0.46316565   -2.3171739 0.00029567328 
  952000   0.83873382   -3.7347921     0.651662   -1.9298711 0.00032075254 
  953000    1.1350105     -4.12007    0.3301695    -2.229261 0.00014072076 
  954000    1.0917243   -3.3437144   0.26446098   -1.5781325 0.00024828475 
  955000   0.79647897   -3.8651784   0.31757261   -2.4524472 3.6259754e-05 
  956000    1.2204259   -3.6426884   0.51164459   -1.4529582 -0.00010530814 
  957000    1.3388234   -3.6692951   0.45800966   -1.3704033 -0.0001817675 
  958000   0.53130465   -4.0584474   0.14561037   -3.1822931 -0.0001992834 
  959000   0.88525425    -3.738176   0.90457213   -1.6163793 -0.000258787 
  960000    0.7887348   -4.1367856   0.39339495   -2.6588803 -0.00017210654 
  961000   0.89726956   -3.6203888   0.31456231   -2.0720808 -0.00016309455 
  962000     1.545097   -3.4919394   0.45098635  -0.91644471 0.00010594037 
  963000    0.6774927   -3.3899825   0.25808225   -2.2003478 -0.0001043751 
  964000   0.90626228   -3.6543541   0.14995858   -2.2582849 0.00052167179 
  965000     1.219491   -3.6532612   0.29025165   -1.6862094 1.8375944e-05 
  966000   0.53711594   -3.8305132   0.51211872   -2.5798601 -0.00028761276 
  967000    1.1318643   -4.0880954   0.76511486   -1.7666671 2.8929139e-05 
  968000    1.0965445   -4.1497738   0.42145806   -2.2205671 0.00035167896 
  969000   0.90125551   -3.9574227   0.24918579   -2.4690106 -0.00012204025 
  970000    1.0936207   -3.8241359   0.40404597   -1.9163614 -0.00012541468 
  971000   0.80921316   -3.9054692   0.51157081   -2.2812303 0.00017831404 
  972000    1.3915766   -3.8669471   0.35403709   -1.5994922 0.00014917992 
  973000    1.1973121   -3.9701166   0.54985564   -1.7739569 -0.00011858844 
  974000    1.0471224   -4.3130582   0.30784829   -2.5654167 0.00013129551 
  975000   0.88378334    -3.626853   0.41442248   -1.9972284 0.0004375179 
  976000    1.2446915   -3.3069744   0.53051853   -1.0650051 0.00025929582 
  977000   0.92813698   -4.2012269   0.36013535   -2.5649032 -0.00014018644 
  978000    0.9797759    -3.834466   0.34689153   -2.1403826 -1.4023403e-05 
  979000    1.3388878     -4.27679   0.32096041   -2.1148589 -0.00018504993 
  980000   0.64560885   -3.4959847   0.28895541   -2.3193171 0.00016889803 
  981000   0.87880963   -4.1681971   0.44224938   -2.5175844 -0.00039172512 
  982000   0.93218984   -3.8573355   0.84295323   -1.7326212 -0.00041422596 
  983000    0.4996747   -3.8580868   0.24571874   -2.9253153 3.583198e-05 
  984000   0.70735475   -3.7133418   0.48374271   -2.2569863 0.00012166806 
  985000    1.4629831   -3.9915191   0.40402576   -1.5758916 0.00011169149 
  986000    1.2750418   -3.8635868   0.34543524    -1.764969 -0.00014491578 
  987000    1.1579572   -4.2708861   0.34382662   -2.3348683 0.00020231647 
  988000     1.127363   -3.8968722   0.36653519   -1.9802129 0.0002498602 
  989000   0.80693379   -4.1469642    0.4937896   -2.5436406 -0.00016403293 
  990000    0.8325569   -4.2069808   0.55038046   -2.5118346 -0.00028446997 
  991000   0.96024581   -3.8657269  0.096527174   -2.4488618 0.0001933421 
  992000    1.4677112   -3.9648397   0.50847365   -1.4382632 -2.00531e-06 
  993000      1.10418   -3.8254455   0.62095024   -1.6862477 -0.0002731208 
  994000   0.83809183   -4.3383642   0.36690065   -2.8190873 0.00012323492 
  995000    1.0235929   -3.7824877   0.77284531   -1.6022022 -6.9851592e-05 
  996000   0.76119823   -4.0220658   0.60967205   -2.3657462 0.0004741372 
  997000    1.3330237   -4.1695886   0.37854803   -1.9581329 0.00040886684 
  998000     1.576292   -3.5644974   0.37132765   -1.0257683 0.00037537905 
  999000    1.1689471   -3.5212636   0.30546586   -1.6084955 -3.1480127e-05 
 1000000   0.93445409   -3.5448197   0.38076111   -1.8791842 0.00020631532 
 1001000   0.71876532   -3.8324204   0.43810791   -2.4060102 0.00029966045 
 1002000    1.0981663   -4.0414279   0.17590448   -2.3555448 0.00032971441 
 1003000    1.2345553   -4.2209506   0.34844213   -2.1749949 0.00015887843 
 1004000    1.2068354   -4.3836901   0.34932603   -2.3749654 -1.8110103e-05 
 1005000   0.82356842   -3.7281289   0.24098517   -2.3547372 -2.1268257e-05 
 1006000   0.99674612   -4.0400533   0.35457641    -2.314951 -9.0121036e-05 
 1007000    1.7332847    -4.370523   0.77781111   -1.2094453 -0.00017379737 
 1008000   0.76722924   -3.8783973   0.40670341   -2.4167537 2.6187331e-05 
 1009000   0.82034991   -3.9149837   0.45331756    -2.333685 -1.6136941e-06 
 1010000   0.95421695   -3.5987738    1.3566525  -0.93007301 -0.00066352788 
 1011000   0.82013628   -3.9450022   0.40979785    -2.407517 -0.00024454005 
 1012000   0.91045521   -3.9207796   0.96037407   -1.7085297 -4.5897111e-05 
 1013000   0.98464755   -3.9623205   0.73547382   -1.8729563 0.0005404138 
 1014000   0.46698619   -4.2196814   0.30497157   -3.2726038 7.1243805e-05 
 1015000   0.95123569   -4.0181727   0.75947745   -1.9507462 -0.00042956146 
 1016000    1.1640933   -3.9247751   0.67637008   -1.6477767 -0.00011139444 
 1017000    1.5497045   -4.0352859   0.55515313   -1.3492891 0.00010699933 
 1018000    0.8155017   -4.2790196   0.46860226   -2.6891025 -7.7730607e-05 
 1019000   0.72269944    -4.098551   0.44221887   -2.6626204 -7.2951796e-05 
 1020000   0.82353516   -4.1748397   0.58591849   -2.4565604 -1.9467294e-05 
 1021000   0.87165925    -3.999193   0.21024751    -2.590414 2.0760624e-06 
 1022000   0.80461119   -3.5694444   0.26538678   -2.1977172 0.00025340493 
 1023000    1.1374585    -4.217397   0.55262372   -2.1007679 -0.00044772373 
 1024000   0.50454566   -3.9924541   0.43203798   -2.8666658 -0.00048106941 
 1025000    1.3225087   -4.2513793   0.39923531   -2.0336944 1.8779085e-05 
 1026000   0.95102566   -4.1033001   0.53743486   -2.2582049 0.00051190197 
 1027000    1.0472084    -4.032457   0.24545807   -2.3470874 3.9037662e-05 
 1028000   0.83140056   -4.1621982   0.50059034   -2.5184321 -0.00025705344 
 1029000    1.2649044   -4.1212886   0.64046134   -1.7415838 -0.00025735704 
 1030000   0.95048797   -3.4912329   0.46734678   -1.7169652 0.00014786607 
 1031000    1.0378652    -4.247655   0.37862973   -2.4419605 -0.00035356466 
 1032000    1.0172207   -3.8666802   0.36304452   -2.1049573 0.00026215214 
 1033000   0.64497794     -4.14183   0.69736629    -2.557619 -0.00024580481 
 1034000    1.1586889   -4.0977226   0.78018165   -1.7243437 -0.0001950199 
 1035000   0.84997896    -4.153358   0.18979523   -2.7948417 0.00028102713 
 1036000   0.85942896   -3.7865586   0.49746378     -2.10738 0.00038281572 
 1037000   0.99691109   -4.1555018   0.53719066   -2.2475584 3.9074853e-05 
 1038000    1.0490041   -3.9748412   0.27490676   -2.2575539 4.7246648e-05 
 1039000    1.5570797   -4.3183875   0.73270376   -1.4446992 -0.00010265199 
 1040000     1.046291   -4.2383867   0.35491899   -2.4448176 -2.8962648e-06 
 1041000   0.94267572    -3.323228   0.69388715   -1.3331617 -0.00029479105 
 1042000   0.95795414   -4.0020041   0.45682189   -2.2279953 0.00016765134 
 1043000    1.1568164   -3.4521875   0.45547592   -1.4060891 -4.8682395e-05 
 1044000   0.83649665   -3.7001754   0.48905156   -2.0609409 -0.00034212135 
 1045000   0.87027679   -3.9980236   0.48585887   -2.3155341 -4.0838102e-05 
 1046000   0.82398253    -4.251415   0.64028213   -2.4781569 -0.00034027879 
 1047000    1.3888208   -4.0173576   0.66656706   -1.4411619 0.00011333318 
 1048000   0.88114866   -4.2940522   0.28513903   -2.7973337 0.00023794731 
 1049000    0.8193849   -4.0269738    0.8137805   -2.0865391 -0.0005118291 
 1050000    1.3217551   -4.1993998   0.26914778   -2.1128387 9.9370726e-05 
 1051000   0.90079794   -4.2689139   0.62954295   -2.4007738 -8.6048689e-05 
 1052000    1.3457087   -3.8829367   0.46372714   -1.5688601 -0.00013830867 
 1053000   0.82654606   -3.7720857   0.74200064   -1.8935842 -0.00029547837 
 1054000   0.78677961   -3.8842478   0.29957189   -2.5028539 0.00014962744 
 1055000    0.9622263   -4.0303593   0.30988884   -2.3974093 3.0005947e-05 
 1056000    0.8180645   -4.2683348    0.2869108   -2.8565853 0.00030561809 
 1057000    0.9751664   -4.1188761   0.30096963   -2.4770526 7.1216048e-05 
 1058000    1.0528476   -3.8620082   0.66512162   -1.7492211 -0.00027721133 
 1059000   0.74727995   -4.2752962   0.63898971   -2.6087966 -0.00014153694 
 1060000   0.82032659   -3.7695363   0.37417989   -2.2674074 -0.00010817161 
 1061000   0.86871092   -3.4920676    0.5013519   -1.7962382 0.0001488856 
 1062000    1.3253013   -4.3688696   0.48166875   -2.0649116 -0.00032246287 
 1063000   0.99957204   -3.8477671   0.40477513   -2.0685804 -0.00023566614 
 1064000    1.2626005   -3.5390402   0.46026733   -1.3426973 0.0005466391 
 1065000   0.86918208   -3.9486566   0.33037596   -2.4231553 -0.00027078862 
 1066000     1.258409   -3.8086902   0.33658232   -1.7417956 0.00032588212 
 1067000   0.73222489   -4.1296518     0.324816   -2.7980266 -1.59494e-05 
 1068000   0.82773991   -3.5643138   0.29341139   -2.1327601 0.00056329796 
 1069000    1.2929583   -3.9023175   0.78648868   -1.3380112 -2.2054508e-05 
 1070000    1.1113847   -3.4388641   0.41118718   -1.4995229 -0.00018748048 
 1071000    1.0936959   -3.7232293   0.41837536   -1.8010221 7.1930765e-05 
 1072000   0.85660383   -4.0254368   0.38967907   -2.4579274 -0.00027247479 
 1073000   0.68776846    -4.316775   0.34753614   -3.0235572 -0.00014009835 
 1074000    0.8607268   -4.3458903   0.70368283   -2.4587081 0.0001655684 
 1075000    1.4574172   -3.7603873   0.76141405  -0.99502464 -0.00022757221 
 1076000   0.85883839   -4.1672511   0.53420603   -2.4521422 -0.00024670163 
 1077000    0.8052541   -3.6748637    1.1998943   -1.3677451 -0.00041650132 
 1078000    1.0691937   -4.1509484   0.56797877   -2.1128282 -4.9828096e-05 
 1079000   0.72712167   -4.3032371   0.86450945   -2.4389354 -0.00023670826 
 1080000    1.4547777    -3.892632   0.46870542   -1.4236073 0.00010656176 
 1081000   0.76123741   -4.0970816   0.43274015     -2.61764 -0.00010204559 
 1082000   0.59382868   -4.3415128   0.60959675   -2.9154016 -0.00011318884 
 1083000   0.59769497   -3.6768702   0.47646658   -2.3785731 -0.00029288506 
 1084000    1.0754826   -3.4215835   0.20925411   -1.7335409 8.730728e-05 
 1085000   0.95881483   -3.6534127   0.73576435    -1.599278 0.00021156379 
 1086000   0.96352795   -3.9825026   0.40038034   -2.2572713 5.9485367e-06 
 1087000   0.58201594   -4.1024705   0.92416172   -2.3780369 -0.0003755177 
 1088000    1.2959236   -3.8912954    0.4909044   -1.6184961 -6.6511646e-05 
 1089000    1.3983599    -4.144174   0.45432381   -1.7671053 0.00030444472 
 1090000   0.51463885   -4.3175475   0.26051276   -3.3494064 -8.8726664e-05 
 1091000   0.97456266   -3.9649993   0.39855628   -2.2264193 0.00010818876 
 1092000    1.2275474   -4.2719545   0.24493159   -2.3391452 -4.042437e-05 
 1093000    1.1846214    -4.078178   0.33285226   -2.1164713 3.3001948e-05 
 1094000   0.69795809   -3.7752972   0.59681933   -2.2187855 0.00020742445 
 1095000   0.81359672   -3.8686668   0.39928186   -2.3506894 9.8167465e-05 
 1096000    1.0949396   -4.2443928   0.61184967   -2.1270012 -3.3377363e-05 
 1097000   0.96841937   -4.0657175   0.29059128   -2.4435495 -0.00017249494 
 1098000   0.75391026   -4.0001807   0.73749943   -2.2260546 -8.2962149e-05 
 1099000   0.70131062   -3.7495285   0.34988557   -2.4353408 -0.00023717363 
 1100000   0.98486165     -4.15665   0.45188778   -2.3505774 0.00030082279 
 1101000    0.8044384   -3.9285952     0.321459   -2.5010334 -0.00026805587 
 1102000   0.82029569   -3.5614833   0.34105873    -2.092518 0.00023940169 
 1103000    1.1414231   -3.6828377    1.0484223   -1.0649586 0.00010474701 
 1104000   0.84688614   -3.8979746   0.45707131   -2.2764349 0.00011347006 
 1105000    1.0054699   -3.3358472   0.36300057   -1.5903255 0.0002954204 
 1106000   0.75627946    -3.722953   0.46167039   -2.2213984 -0.00019312193 
 1107000    1.1805222   -4.2096785   0.35156277   -2.2348977 0.00019354886 
 1108000   0.72282485   -3.5141221   0.59476788     -1.92547 -0.00018794312 
 1109000   0.85367296   -4.1770148    0.2664184   -2.7367961 -0.00021668326 
 1110000   0.72398239    -4.296863   0.38305518    -2.918332 -0.00014892852 
 1111000    1.1136051   -3.7166788   0.57278764   -1.6126841 6.1827647e-05 
 1112000   0.79393222   -3.8081967   0.33165199   -2.3848879 8.0996355e-05 
 1113000     1.134751   -4.0237678   0.49245036   -1.9710348 -0.00011505009 
 1114000   0.83464451   -3.9732382   0.52427914   -2.3013229 -0.00047733778 
 1115000    1.1232997   -4.3464201   0.85201238   -1.9498706 -0.00015602849 
 1116000    1.3001156   -4.1718725   0.24100337   -2.1432102 0.00016392643 
 1117000   0.62529095   -3.9201337   0.16772041   -2.8926382 2.8245361e-05 
 1118000    1.1092632   -3.8100213   0.42156639    -1.863218 -2.9822695e-05 
 1119000    1.1859457   -4.0138048    0.4324642   -1.9506653 4.4857216e-05 
 1120000     1.023376   -4.0904593   0.32666729     -2.35665 0.00018203658 
 1121000    1.1822793    -3.956712   0.50195909   -1.8291188 3.9548116e-05 
 1122000   0.93598594    -3.690657    0.2612225   -2.1424538 9.406895e-05 
 1123000   0.80990656   -4.3113301   0.31894447   -2.8787641 4.7682314e-05 
 1124000    1.0384798   -3.8896338   0.32498247   -2.1367416 5.2455084e-05 
 1125000    1.2411491     -4.03858   0.75483439   -1.5771657 -0.00024058234 
 1126000    1.3240493   -3.9983279   0.28690985   -1.8908502 0.00065915215 
 1127000    1.0452419   -4.2411671   0.25898323   -2.5449762 8.4853407e-05 
 1128000    1.4377641   -3.7063774     0.469535   -1.2599167 0.00011218152 
 1129000    1.0820478   -4.1489923    0.3382996   -2.3228769 -9.8348025e-05 
 1130000   0.94328371   -4.2783554   0.54538418   -2.4359561 -0.00010495062 
 1131000   0.77578503   -3.9936048   0.69581011   -2.2310903 -3.4665358e-05 
 1132000   0.97631746   -4.2259613   0.42038828   -2.4631365 0.00015041796 
 1133000    1.1080904   -3.4015059   0.38763205   -1.4902495 -0.00018049632 
 1134000    1.3664084   -4.3011298  0.085758788   -2.3365595 0.00011761645 
 1135000   0.96136243   -3.6820923   0.47409009   -1.8861289 0.00035118573 
 1136000   0.94222128   -3.5211176   0.54460988   -1.6809535 -0.00025978469 
 1137000    1.0043347   -4.2451166    0.4696772   -2.3944792 0.00026416708 
 1138000    1.0494721    -3.974765   0.36399639   -2.1677445 0.00044916444 
 1139000    1.3548806   -3.6317656   0.51016253   -1.2586422 -2.6929389e-05 
 1140000    1.0919012   -3.8584303   0.56497029   -1.7920959 -6.0170098e-05 
 1141000    1.1820468   -4.3150282   0.44921403   -2.2404999 8.4415145e-05 
 1142000   0.89890035   -3.7814554   0.30359733     -2.24187 0.00020607773 
 1143000    1.1178754   -3.8526863   0.25636959    -2.059238 0.00018343343 
 1144000   0.84189857   -3.6991665   0.34611244   -2.1954435 5.5769041e-05 
 1145000    1.1671096   -4.3402911   0.26128928   -2.4742262 7.2862983e-05 
 1146000   0.84767303   -3.8845986   0.55253613   -2.1665121 0.00029809138 
 1147000    1.2920255   -3.7374813    0.4495718   -1.5113744 -0.00032307426 
 1148000   0.73140812   -4.0789485   0.44322501   -2.6300373 -0.00019371962 
 1149000    1.0304397   -3.9458549   0.68743502   -1.8415654 -0.00017467104 
 1150000   0.99611654   -4.2228012   0.54622986   -2.3069111 1.7083386e-05 
 1151000    1.3196308   -3.4469202   0.41217421   -1.2202537 -4.3411524e-05 
 1152000   0.95797453   -4.0708829   0.91779201   -1.8358759 -0.0002247431 
 1153000    1.1484175    -3.831113   0.39237071   -1.8596682 0.00041121364 
 1154000   0.80881644   -4.1752231   0.27913528   -2.7839652 0.00013591466 
 1155000    1.0476193   -3.8598308   0.35855968   -2.0607946 -5.2366099e-05 
 1156000   0.90504248   -3.0908338   0.31502395   -1.5313764 0.00019662208 
 1157000   0.82291247   -3.8796091   0.55433426   -2.1937702 3.2511878e-05 
 1158000   0.89126924   -4.3265614   0.68973815    -2.411328 -0.00041944953 
 1159000    1.0951661   -4.0281666  0.069236057   -2.4530771 1.2105078e-05 
 1160000   0.96024655   -4.1774119   0.74235808   -2.1147148 -0.00034014264 
 1161000    1.3182635   -4.4220904   0.41470102   -2.1947771 -0.00013027899 
 1162000    1.3824881   -4.5653748    0.3797402   -2.2847135 -7.5849317e-05 
 1163000   0.87508837   -3.9014878    0.4327045   -2.2655368 0.00012650834 
 1164000    0.9664765   -3.6669546   0.31881921   -2.0192303 0.00023013908 
 1165000   0.99887925    -4.412935   0.55596367   -2.4835123 -0.00040514981 
 1166000    1.1585272   -4.0520574    0.2952404   -2.1638421 0.00013854798 
 1167000   0.92685867   -4.1297375   0.52623093   -2.3290759 -0.00016921977 
 1168000      0.96696   -4.2543921    0.3977306   -2.5270915 -0.00025480312 
 1169000   0.78039471   -4.2142977   0.51365403   -2.6276009 2.0764716e-06 
 1170000    1.0180388   -3.9369398   0.48723679   -2.0498997 -2.1068906e-05 
 1171000   0.73644613   -4.2585568   0.76281353   -2.4831298 0.00021074394 
 1172000   0.62010462   -4.1190558   0.38283531   -2.8835766 0.0003327976 
 1173000   0.57308459   -4.1500658   0.27986552    -3.082209 -0.000118487 
 1174000    1.0661616    -4.106624   0.60482278    -2.035829 -0.00025220992 
 1175000    1.1358357   -4.2427588   0.62773965    -2.053245 -0.0003789759 
 1176000   0.89806938   -3.1261199   0.40787032   -1.4834042 0.00030048646 
 1177000    1.1467014   -4.2466329   0.25878057   -2.4111379 -3.3992909e-05 
 1178000   0.70270133   -3.9124446   0.30892906   -2.6373012 -1.2141764e-05 
 1179000   0.83171325   -3.7801088   0.48157799   -2.1549251 -5.6209503e-05 
 1180000    1.0388682    -4.103054   0.42758538   -2.2470248 -3.5797294e-05 
 1181000   0.85447152   -4.1584224   0.62191901    -2.361605 -0.00028776763 
 1182000    1.1168683   -4.3489095   0.27293052    -2.540285 1.0465725e-05 
 1183000   0.99856969   -4.1229989   0.43108217   -2.3188834 -0.00046049356 
 1184000   0.90720921   -4.2929212   0.25412843   -2.7913801 1.0844301e-05 
 1185000   0.60831619   -4.0940938    1.0376442   -2.2200149 -0.00028173046 
 1186000    1.0059332   -3.8711921     0.445052   -2.0429819 0.00020490301 
 1187000   0.95398131    -3.900678   0.23112302   -2.3578307 6.8958161e-06 
 1188000    1.0641713   -3.7417567   0.26880372   -2.0097174 0.00017413029 
 1189000    0.9897043   -4.2775246   0.22773715    -2.688944 9.5881945e-05 
 1190000   0.96063646    -4.154766   0.37362164   -2.4602692 -4.8634629e-06 
 1191000   0.97722881   -4.0420178   0.49389064   -2.2044375 -1.6166387e-05 
 1192000    1.3692834   -4.0008501   0.29066244    -1.827423 0.00016561672 
 1193000    1.4561571   -3.6080368   0.38601056   -1.2198101 0.00037390194 
 1194000    1.1721862    -4.082224   0.44737674   -2.0230912 0.00042678062 
 1195000   0.72467826   -3.9944195   0.48271496   -2.5152719 8.5183692e-05 
 1196000    1.0677725   -4.1599655   0.33280367   -2.3589746 -0.00019354294 
 1197000    1.5979462   -4.3619423   0.33945341   -1.8253129 0.00012210141 
 1198000   0.93642977   -3.9613679   0.53181374   -2.1419632 -0.00024533211 
 1199000    1.0135899    -3.900716   0.37612872   -2.1309011  3.10473e-05 
 1200000    1.1634616   -4.1428645   0.70414814   -1.8389567 -0.0002815479 
 1201000    1.0779418    -4.286883   0.30889706   -2.4958159 0.00013548673 
 1202000   0.92354589   -3.7766289   0.29999112   -2.2067621 -8.8954625e-05 
 1203000    1.0243721   -4.0422283   0.21286549   -2.4208512 0.00049347304 
 1204000    0.7222258   -4.0810156   0.30384587   -2.7841092 -8.6855157e-05 
 1205000    1.0686765      -4.4059   0.67506773   -2.2614022 -9.6203522e-05 
 1206000   0.89297177   -3.7006115   0.45826461   -2.0145107 0.0002019912 
 1207000   0.78768948   -4.2111105   0.43745675   -2.6905808 1.0536166e-05 
 1208000   0.75869601   -4.2772671   0.36004489   -2.8740152 -0.00020221766 
 1209000   0.86304892   -4.5297461   0.22816165   -3.1148922 -0.00013659958 
 1210000   0.95363373   -4.0724191   0.50307313   -2.2580995 4.1023883e-05 
 1211000   0.50967023   -3.7866178    0.8084779   -2.2773433 -5.4288725e-05 
 1212000   0.89522598   -4.3992835   0.90592476    -2.262423 0.00014035536 
 1213000   0.90986983   -3.6485373   0.22171866   -2.1757476 0.00011359734 
 1214000   0.94491485   -4.2488436    0.2739559   -2.6756297 0.00063316988 
 1215000     1.086676   -4.1298074   0.52827237   -2.1073556 0.00014809031 
 1216000    0.9686906   -4.3168515   0.33278731   -2.6521146 0.00030463748 
 1217000    1.2979594   -4.1210433   0.69860392   -1.6377452 5.2806307e-05 
 1218000     1.125288    -3.923535    0.2894444   -2.0868196 -5.4741466e-05 
 1219000   0.80686951   -4.2800914   0.34196554   -2.8286803 3.6414707e-05 
 1220000   0.94919276   -3.7668517   0.46704528   -1.9946664 -3.3099504e-05 
 1221000    1.4000563    -4.079328   0.36677536   -1.7874753 0.00017780452 
 1222000    0.8148806   -4.0170084    0.3662092   -2.5303384 0.00019835616 
 1223000   0.81773456   -4.4049507    0.2762884   -3.0042773 -0.0001035852 
 1224000   0.91637444   -3.8991373   0.55033712   -2.0887853 -0.00045700125 
 1225000    1.1635233   -3.8404902   0.49630219   -1.7443435 -0.00037326551 
 1226000   0.61442041   -4.3090066   0.56605449   -2.8981241 -0.00012760489 
 1227000    1.3414981   -4.0590532   0.46846692   -1.7460263 -0.00011595875 
 1228000   0.86072341   -4.0203688   0.65189212   -2.1849819 -5.4131563e-05 
 1229000   0.81098844   -4.1781215    0.3940463    -2.668966 0.00026031543 
 1230000    1.4638071   -4.1499612   0.41915351   -1.7180729 -0.00042193001 
 1231000    1.0173267   -4.1322403   0.14123815   -2.5921779 4.5524459e-05 
 1232000   0.77354738     -3.97288   0.79963185   -2.1096205 -0.00054280366 
 1233000    1.1745066   -4.1357308   0.81651407   -1.7042701 9.8239717e-05 
 1234000    1.1977831    -3.986365    0.1927077   -2.1467055 0.00040529884 
 1235000    1.0197632   -4.1461154   0.17957845   -2.5643625 0.00052740103 
 1236000    1.2065364   -4.0496378   0.13490755   -2.2557426 0.00028552225 
 1237000    1.4128606   -3.9023976   0.48199531   -1.4777189 7.5131375e-05 
 1238000   0.77570999   -4.4316256   0.63334757   -2.7316768 8.4243042e-05 
 1239000    1.0186622    -4.228859   0.31699639   -2.5112021 0.00017774031 
 1240000    1.4289748   -3.9688984   0.65277308    -1.351285 4.3529106e-05 
 1241000    1.2673512   -4.2479657   0.55448631   -1.9508714 -0.0001342314 
 1242000   0.67096309   -4.3021734   0.44129705   -2.9383021 -0.00018590961 
 1243000    1.0886913   -3.4391523   0.22642807   -1.7157736 0.00017002087 
 1244000    1.0943162   -4.2805121   0.41060099   -2.3652264  -0.00018931 
 1245000    1.2074215   -4.0965297    0.6685249   -1.7678002 -0.00020903836 
 1246000    1.0469108   -4.4456675   0.61807574   -2.3880894 -0.00036754994 
 1247000   0.85296401   -3.8445011   0.33974046   -2.3319351 6.8261389e-05 
 1248000    1.1145583    -4.426836   0.72656668   -2.1677516 -0.00038922017 
 1249000    1.2199187   -3.9213526   0.34748535   -1.8964791 -8.9392771e-05 
 1250000   0.95511967   -3.9404733   0.56385792   -2.0633258 -3.1267725e-05 
 1251000    0.8673302   -4.0121445   0.39443363   -2.4251319 0.00016571522 
 1252000   0.69032711   -3.7013246   0.42447561   -2.3276493 0.00021200854 
 1253000     1.222643   -3.6420994    0.2943218   -1.6666435 -0.00020110074 
 1254000   0.90959264   -3.8515219   0.65564721   -1.9451848 2.0981713e-05 
 1255000     0.699697   -4.5562782    0.3961108   -3.1980841 -9.6092892e-05 
 1256000    1.0502323   -3.5716745   0.58352958   -1.5440756 -0.00011073597 
 1257000    1.0922031   -3.6848751   0.70613053   -1.4769653 -0.00011582951 
 1258000    1.1158473   -4.3410773   0.57388704   -2.2329002 -0.00012850206 
 1259000    1.4418402   -3.9810935   0.66762368   -1.3309394 -0.00013190772 
 1260000    0.8340023   -4.1664324   0.75313101   -2.2665482 2.7197396e-05 
 1261000   0.91130607   -3.5912411   0.67984829   -1.6583469 -0.00015100173 
 1262000   0.84483092    -4.292461   0.47082762   -2.6599908 -0.00020179515 
 1263000   0.91458485   -3.5251793   0.41353756   -1.8540876 0.00027777105 
 1264000   0.76164402   -4.2647568   0.34378783   -2.8737084 -0.00032104639 
 1265000      1.25082    -4.071745   0.47167908   -1.8801885 -0.00022819293 
 1266000    1.2838232    -4.172817   0.78183697   -1.6257231 9.5709234e-05 
 1267000   0.95119836   -3.8973935   0.59382451   -1.9956713 -0.00013471532 
 1268000    1.2134609   -4.2053298   0.21886247   -2.3179585 0.00045064282 
 1269000   0.73092526   -4.0394672   0.43787798    -2.596567 0.00023504504 
 1270000    1.1711999   -4.2990853   0.77691704   -1.9117684 4.0510539e-06 
 1271000   0.77231962   -4.1360641   0.46737202   -2.6067526 0.00016617632 
 1272000   0.81005105   -3.9451745   0.41316207   -2.4181922 -0.00012868372 
 1273000    1.0448051   -4.2945509   0.71655464   -2.1413892 -0.00025008626 
 1274000    1.5865859   -4.0212025   0.48752819   -1.3521187 0.00057084902 
 1275000   0.91105847   -4.1066932   0.64782937   -2.2061585 0.00033065567 
 1276000   0.96136544   -2.9642655   0.28555762   -1.3568304 -1.2860577e-05 
 1277000   0.79894489   -4.2225977   0.31823858   -2.8058099 0.00015996335 
 1278000   0.91029314   -3.9396307   0.61245973   -2.0755179 -9.4896542e-05 
 1279000    1.0155394   -4.1138408   0.19826631   -2.5192078 0.00040197212 
 1280000    1.2163194   -4.4301725   0.58572928   -2.1720041 4.008421e-06 
 1281000   0.96855015   -4.0940515   0.41989673   -2.3423983 0.00019963496 
 1282000   0.92024736   -4.4438141   0.65752575   -2.5209482 -0.00011553847 
 1283000   0.88002573   -3.8981202   0.45995315   -2.2281317 -0.0002633251 
 1284000    1.2829174   -4.2814745   0.53196562   -1.9854974 9.0336107e-05 
 1285000   0.84806689   -3.7657438   0.37380677   -2.2258451 0.00035375139 
 1286000    1.0014712   -3.9150727   0.69983656   -1.8382132 0.00029910957 
 1287000    0.7919571   -3.9976318   0.56332378    -2.345367 0.00032895296 
 1288000    1.0109866   -4.1101022    0.2482455   -2.4717501 0.00019717782 
 1289000    1.0270126   -4.0532675   0.35866622    -2.282459 4.8755974e-05 
 1290000   0.91182451   -3.7262027   0.33007388   -2.1423701 0.00026948295 
 1291000   0.65455951   -4.2800947   0.39885272   -2.9812227 -0.00020791874 
 1292000     1.581881   -3.8610443   0.19523601    -1.490722 0.00066530218 
 1293000   0.74629594   -3.9285616   0.41417339   -2.4882313 -0.00029933584 
 1294000    0.6069328    -3.727882   0.56334793   -2.3300015 9.8973576e-06 
 1295000    1.3126939   -3.9516096   0.32935715   -1.8172983 -0.00032557983 
 1296000   0.92235891   -3.6878354   0.31837906   -2.1012128 5.7781546e-05 
 1297000   0.67610024   -3.2160434   0.21490992   -2.0714957 0.00036386102 
 1298000   0.98346822   -3.9048311    1.3045168   -1.2480455 -9.9339401e-05 
 1299000   0.97309294   -4.3837033   0.57507957    -2.470621 -0.00021256798 
 1300000    1.0415013    -4.319208    0.9331425   -1.9540013 0.00013559854 
 1301000   0.72371641   -4.1193098   0.52904269   -2.5951571 -0.0001021283 
 1302000   0.54149046   -4.0159591   0.44022998   -2.8311797 -0.00014900468 
 1303000    1.0711713   -3.7111266   0.43211289   -1.8061532 -0.0001674031 
 1304000    0.8435979    -4.277955   0.45961517   -2.6583927 -7.5678748e-05 
 1305000   0.80732231    -3.526371   0.38830836   -2.0279945 -0.0001635328 
 1306000    1.3201284   -4.3122649   0.55231159   -1.9447767 -0.00020450549 
 1307000    0.9771128    -3.825042   0.10712233   -2.3743896 -9.6597127e-05 
 1308000    1.2334306   -3.2437845   0.19893036   -1.3488871 7.1368051e-05 
 1309000    1.2193541   -3.8866819   0.25247901    -1.957591 -0.00010213397 
 1310000    1.3164219   -4.1127322   0.68033575   -1.6223163 -0.00026843606 
 1311000   0.85928406   -3.8231406   0.46081178   -2.1808132 8.056068e-05 
 1312000   0.75055668   -3.7784227   0.55107256   -2.1953347 0.0004481186 
 1313000   0.87931987   -3.5287471   0.31571084   -2.0039714 -5.0325125e-05 
 1314000    1.2160846   -4.2962718   0.48398855    -2.140167 0.00015210725 
 1315000    1.1285335   -3.9443634   0.28161308   -2.1110167 0.0001103335 
 1316000   0.91352354   -4.4262872   0.49644606   -2.6737462 0.0001084909 
 1317000    1.1844641    -4.037114   0.21538971   -2.1930862 0.00030709458 
 1318000   0.72719786   -4.3471576   0.50426784   -2.8429927 -2.6583162e-05 
 1319000    0.8620191   -3.1805734    0.4957594   -1.4995377 -0.00018104836 
 1320000    0.9805657    -4.066111   0.32750948   -2.3903237 -7.718769e-05 
 1321000     1.031521   -4.0057297   0.17908209   -2.4083062 -0.00014515108 
 1322000    1.5040004   -4.0580529   0.25892097   -1.7311313 -5.136277e-05 
 1323000   0.93387537   -4.0633904   0.32926577    -2.450046 0.0001357611 
 1324000   0.80435327   -4.3618067   0.35673041   -2.8990905 0.00013688666 
 1325000   0.83339409   -3.2161805   0.24026717   -1.8299965 0.0003131918 
 1326000   0.78487121    -4.030513   0.45045401    -2.500861 -4.3030262e-05 
 1327000     0.922289   -3.1731211    0.4215353   -1.4834385 -0.00024943037 
 1328000   0.69593151   -4.0096557   0.47221498   -2.5805349 -0.00051876507 
 1329000   0.70472276   -3.9238755   0.30662339   -2.6482583 -0.00028086736 
 1330000   0.72722083   -3.8872698   0.69235291   -2.1949883 -0.00026742503 
 1331000   0.89705221    -4.134518   0.70528188   -2.1957893 -9.4798349e-05 
 1332000   0.52891891   -4.2091305   0.41649653   -3.0653704 0.00017634855 
 1333000   0.88816861   -3.9211546   0.79167042   -1.9082523 -0.00013478787 
 1334000   0.77967932   -3.6168446   0.28772077   -2.2570648 -0.0001801876 
 1335000   0.69425174    -4.059353   0.29514088    -2.809616 -0.0001203994 
 1336000   0.96892986   -3.9012422    1.0316122   -1.5373515 -8.671865e-05 
 1337000   0.71737276   -4.2017582   0.52382096   -2.6915497 -0.00010925459 
 1338000    1.5379261   -3.9869397   0.46213661   -1.4101548 0.00011984787 
 1339000    0.8499521    -3.808415    0.7611034   -1.8786274 0.0001399602 
 1340000   0.45586978   -3.9794789   0.39234208   -2.9603158 -0.00027622907 
 1341000     1.056342   -3.7465791   0.12996462   -2.1641442 -0.00017730669 
 1342000    0.9793958   -4.4247496   0.63352927   -2.4445511 -0.00014758208 
 1343000    1.1907193   -3.9588979   0.27610119   -2.0455577 1.6234522e-05 
 1344000   0.83515547   -3.7289103   0.39134218   -2.1892294 0.00030799088 
 1345000   0.97249826   -4.0007693   0.37570925   -2.2878749 0.00011673143 
 1346000    1.4690096   -3.8282101   0.38488333   -1.4234385 -9.1552759e-05 
 1347000   0.69622728   -4.3906881   0.36652196   -3.0668536 -0.00036579322 
 1348000    1.0672071   -4.1886124   0.85843426   -1.8627683 -0.00011916478 
 1349000    1.5396834   -3.2872505    0.8777213  -0.29246456 -0.0001958217 
 1350000    1.1459564   -3.9236353   0.33786123    -2.010084 -0.00011160086 
 1351000   0.95588705   -4.1714734    0.3863638   -2.4707649 0.00032521724 
 1352000   0.66038186    -3.826738   0.43765281   -2.4810601 8.4435892e-05 
 1353000   0.78719774   -3.4488825   0.47220823   -1.8942774 0.00011245747 
 1354000   0.90758499   -4.2404653   0.32696934   -2.6655666 -0.00031838176 
 1355000   0.67602745    -3.628592   0.50381807   -2.1952361 -0.0001517334 
 1356000   0.93877733   -3.2942194   0.67544018   -1.3279603 -7.3724159e-05 
 1357000   0.71607123   -4.2905799   0.52890932   -2.7770727 0.0002910761 
 1358000   0.94260349   -3.9247783   0.85493985   -1.7737587 -0.00012470872 
 1359000    1.3700773      -4.1045   0.76577071    -1.454873 0.00023053074 
 1360000   0.77133395   -3.7823516   0.76258607   -1.9591814 -0.00043559183 
 1361000   0.81733597   -3.4603289   0.30549637   -2.0309956 0.00030643832 
 1362000    1.2075833   -3.9192274   0.63408648   -1.6247139 -0.00018473614 
 1363000    1.2333782   -4.0095137   0.24906425   -2.0645544 -6.1026417e-05 
 1364000    1.3548482   -3.8083073   0.10838209    -1.837009 0.00032823828 
 1365000    0.8871839   -3.7574817   0.78270243   -1.7549014 4.3810255e-05 
 1366000     1.154715   -4.0188568    0.9906864   -1.4404372 0.00016708826 
 1367000   0.73152381    -4.021794   0.91206082    -2.103888 -0.00052838543 
 1368000    1.0949944   -4.1445592   0.31326447   -2.3256774 0.00013430842 
 1369000    1.4146939   -3.5125643   0.39546957   -1.1718905 -3.7108255e-06 
 1370000   0.87952506   -3.4142053   0.37733297   -1.8275254 0.00018949731 
 1371000   0.88178796   -3.2022042   0.38571445   -1.6040313 0.00012931988 
 1372000   0.66679466   -4.2678758   0.68263857   -2.6683946 -0.00016892959 
 1373000    1.0602025   -3.6882897   0.43835972   -1.7921516 7.157538e-06 
 1374000   0.51683228    -4.127197   0.28663138   -3.1299213 -6.8775751e-05 
 1375000    1.0757401   -3.9325908   0.41465085   -2.0387973 0.00037729145 
 1376000   0.77691029   -4.3047033   0.55318017   -2.6832715 -0.00012156483 
 1377000    1.1014176   -4.1241886   0.60781139    -2.001928 -0.0002068242 
 1378000    1.1018552   -3.6390841   0.49346842   -1.6305648 -5.4941756e-06 
 1379000    1.0907452   -3.4554498   0.41705799   -1.5386172 -1.8533029e-05 
 1380000    0.9990206   -4.1342537   0.36841818   -2.3921822 -0.00024159748 
 1381000   0.86680658   -4.0559995   0.37628359   -2.4878569 -3.9565037e-05 
 1382000   0.71807223   -4.2693466   0.31783076   -2.9641665 -4.8736304e-05 
 1383000   0.94099936   -3.7665215   0.43512124   -2.0375261 8.1118265e-05 
 1384000     1.180538   -3.3790028   0.37615454   -1.3796085 8.697007e-05 
 1385000   0.98199823   -4.3465737   0.44888245   -2.5474437 -0.00027612836 
 1386000    1.1399697   -4.2682569    1.1480426   -1.5527559 -0.00014199326 
 1387000   0.78016457   -3.8546583    0.4108274   -2.3711046 0.00016447712 
 1388000   0.73259157   -3.9281644    0.3223263   -2.5985247 0.00047647145 
 1389000   0.76081366     -4.19715   0.30962819    -2.841403 0.00031709248 
 1390000    1.4639761   -3.9301955   0.28152867   -1.6356997 -0.00023111416 
 1391000    1.1230164   -4.2443228   0.29308434    -2.407091 1.6292755e-05 
 1392000    1.1779147   -3.9491161   0.22307738    -2.106406 7.6637735e-05 
 1393000    1.2303176   -4.0954091   0.40694194   -1.9967805 -0.00026214117 
 1394000   0.67441674    -3.877234   0.35170041   -2.5982106 -0.00019988727 
 1395000   0.98594514   -4.4209679   0.34518556   -2.7201078 0.00022115479 
 1396000    1.1790784   -4.0600535   0.58014644   -1.8586743 0.00012484495 
 1397000    1.1031339   -4.0404056    1.0046048   -1.5189918 0.00018578454 
 1398000    1.2849726   -4.1405539    0.2554095    -2.118307 -9.7613107e-05 
 1399000   0.77686191   -3.8696642   0.27923422   -2.5222449 6.3766682e-06 
 1400000    1.6464946   -3.8611785   0.44661497   -1.1506335 0.00033888926 
 1401000    1.2796089   -3.8956789    0.4119995   -1.7242171 0.00015311363 
 1402000    1.4371243   -3.6023417   0.66309878  -0.96319708 0.00045103664 
 1403000    0.7925908   -3.8321862   0.63776503   -2.1046088 -0.00044639502 
 1404000   0.74421456   -3.8764635   0.32555257   -2.5276159 0.00015766016 
 1405000   0.81509646   -4.1972094   0.45940715   -2.6170446 6.869668e-05 
 1406000    1.0085795   -4.1317033   0.61055454    -2.134352 -7.1007475e-05 
 1407000     1.159805   -3.6581363   0.50134726   -1.5620571 -0.00023213722 
 1408000    1.0662002    -3.780714   0.70019725   -1.6144915 -0.00025703129 
 1409000   0.49842027   -3.9639248   0.19305785    -3.085539 0.00013145435 
 1410000   0.96912822   -3.8196565   0.81106589   -1.6760393 0.00012219243 
 1411000   0.89799867     -3.93524    0.7249593   -1.9755325 -8.9882341e-05 
 1412000   0.98490835   -3.4564352   0.53359448   -1.5685917 -0.0002696613 
 1413000    1.0398099   -3.6254952   0.26863273   -1.9271239 0.00027797776 
 1414000    1.1239023   -3.4409981   0.38689219   -1.5087402 -0.00025651989 
 1415000   0.88331977   -4.1843413   0.77536068    -2.194416 -0.00022430964 
 1416000   0.81724289   -3.6416949   0.76153974   -1.7564462 -0.00028889364 
 1417000   0.61780735   -3.8264207   0.32997947   -2.6469562 0.00016541829 
 1418000    1.4029784   -4.1452445   0.50673888   -1.7094103 0.00039527739 
 1419000    1.0107227   -3.8621199   0.62361295   -1.8487633 -0.00029053113 
 1420000   0.93575853   -3.5356243   0.40908753   -1.8398688 -0.00016695869 
 1421000   0.89815315   -4.2491966   0.49183915   -2.5223969 3.1560404e-05 
 1422000    1.0674883    -3.690217   0.85570269   -1.3667178 -0.00010996032 
 1423000    1.2523271   -4.0463707    0.8012867   -1.5231342 0.00024365555 
 1424000    1.0189566   -3.8505705   0.71312836   -1.7363768 -9.1309789e-05 
 1425000   0.82144328   -4.1802526   0.40913392   -2.6416342 0.00022198109 
 1426000     1.215992   -3.5416479   0.49590381    -1.373755 3.4438027e-05 
 1427000     0.777015   -3.9491252   0.74830419   -2.1324254 -0.0001087637 
 1428000   0.85823107    -4.035184   0.39772238   -2.4573939 -0.0001113654 
 1429000   0.80435034    -4.233997   0.19299237   -2.9350229 4.7000702e-05 
 1430000   0.88050327   -3.9817907    0.4686561   -2.3024426 0.00010905445 
 1431000     1.252338   -3.3782061   0.62581416   -1.0304272 -0.00027006247 
 1432000   0.98265422   -3.7762591   0.73424597   -1.6908636 8.2716946e-06 
 1433000    1.1258195   -4.0532712   0.61004293   -1.8952264 -6.734437e-05 
 1434000     1.017151   -4.1093875   0.69118698   -2.0196179 0.00022671796 
 1435000   0.93394313   -3.4958854   0.60650613   -1.6052075 -4.2608041e-07 
 1436000    1.1029186   -3.9040772   0.16603766   -2.2215264 -0.00010105223 
 1437000    1.2183319    -4.140834   0.63940547   -1.8262221 0.00028159616 
 1438000   0.66689037   -4.2686486   0.60380037    -2.747874 -0.00025905283 
 1439000    1.4612699   -3.7158246   0.37382524   -1.3327533 0.00029065032 
 1440000    1.0576983   -3.7606412   0.12296552   -2.1833405 0.00026478333 
 1441000    1.3579332   -3.9467953  0.098203428   -1.9814337 0.00032745034 
 1442000   0.98100669   -3.7314842   0.65659139   -1.7260087 -0.00013261347 
 1443000    1.0971988   -4.3323421   0.38703449   -2.4366592 5.5409267e-05 
 1444000   0.87143436   -3.9451811   0.76326337   -1.9836955 -0.0002995484 
 1445000   0.69709586   -3.6189161   0.31156856   -2.3488407 0.0001444804 
 1446000   0.97495584   -3.1670532   0.59326271   -1.2332262 0.00021621178 
 1447000   0.81182901   -3.3734806    0.6994625   -1.5577532 -6.3847147e-05 
 1448000    1.2448445   -4.2537119   0.73978557   -1.8022652 -0.00019243891 
 1449000    1.1382296    -4.327925   0.65582249   -2.1070367 -0.00018496274 
 1450000   0.81468608   -4.0557438   0.95770945    -1.977841 5.451123e-05 
 1451000   0.58701492   -4.0801071   0.28463487   -2.9883267 0.00046735289 
 1452000   0.86154493   -4.1350795   0.38403757   -2.5664177 0.00026273135 
 1453000    1.2143552    -4.225373   0.23427665    -2.321358 -8.242735e-05 
 1454000    1.5674861   -3.6734484   0.31001852   -1.2081365 0.00035786845 
 1455000   0.80897194   -4.0295923    1.0341068   -1.8831491 -0.00012433145 
 1456000    1.1432531   -3.9135781    0.2996126   -2.0419925 0.00013749849 
 1457000    1.1367287   -4.1605749   0.73191395    -1.865659 -0.0003524762 
 1458000    1.4665174   -4.0074018   0.70109692   -1.2898435 -0.00040610206 
 1459000    1.1533908   -4.0943663   0.49317717   -2.0152767 -7.5262203e-05 
 1460000    0.6862808   -3.3555221   0.41014198    -2.001744 -3.1934529e-05 
 1461000    1.2698129   -4.0131455   0.19601062   -2.0711421 -7.837265e-07 
 1462000   0.83537731   -3.3661375   0.57957632   -1.6379173 -0.0002093922 
 1463000    0.9842737   -3.9003338    1.1543278   -1.3926296 -0.00016014821 
 1464000    0.8022347   -3.6338312    0.4408244    -2.089934 0.00015522515 
 1465000   0.94526582   -4.2818102   0.43051604   -2.5515537 8.9425545e-06 
 1466000     1.505406   -4.3263819   0.84962462   -1.4068241 -8.9567668e-05 
 1467000   0.84903957   -3.2853928   0.46285245    -1.655111 0.00028933713 
 1468000   0.77219409   -3.8888032   0.66112266   -2.1659137 -0.00048157943 
 1469000    1.0243373    -2.949846    1.1128207  -0.42856146 -0.00055574692 
 1470000    1.1870819   -4.0116582   0.50272543   -1.8766951 -0.00024034304 
 1471000    1.5413981   -3.9748685   0.31269964   -1.5427464 -0.00016173686 
 1472000    1.2835973   -3.6339595   0.48641453   -1.3825987 -2.4591428e-06 
 1473000    1.1341618   -4.1634538    0.3716477   -2.2323336 0.00029213568 
 1474000   0.92611575   -3.7084769   0.38658212   -2.0484856 0.00021093262 
 1475000    1.1984703   -4.2697752   0.46137756    -2.160501 -0.00017127154 
 1476000    1.1159659    -3.599691   0.35402904   -1.7112088 -0.00012000487 
 1477000   0.80634175   -4.0988396   0.42606835   -2.5640514 -0.00028434543 
 1478000    1.1470316   -4.2496349   0.77667953   -1.8957869 -0.00024123977 
 1479000   0.79411462   -4.0011782   0.33425665    -2.575014 0.00013125871 
 1480000    1.1561955   -3.9103041   0.30934315   -2.0111921 0.00014949211 
 1481000   0.73246172   -3.9094938   0.88864529   -2.0137136 0.00054122857 
 1482000   0.97291323   -3.8209198   0.27450701   -2.2086571 0.00031876427 
 1483000   0.77027096    -3.479529   0.36729186   -2.0531146 -0.00023736744 
 1484000    1.0372209   -3.1682985   0.44886031   -1.2932595 0.00075911407 
 1485000     0.883082   -4.0463511   0.49064597   -2.3414674 0.00034092067 
 1486000   0.99217933   -3.7384784   0.50952738   -1.8647044 0.00027641947 
 1487000   0.42450768   -3.4115378   0.46422004   -2.3636197 0.00027276942 
 1488000   0.85516637   -3.3376506   0.25171465   -1.9100821 0.00014476768 
 1489000    1.3477146   -4.3221251   0.73214169   -1.7368759 5.8651491e-05 
 1490000    1.3754068   -3.7164446   0.41273373   -1.4125265 2.8322168e-05 
 1491000    0.7401734   -3.9535635   0.57991839   -2.3559067 -5.9676554e-05 
 1492000   0.80483083   -3.8750697   0.79222066   -1.9762066 -0.00040282836 
 1493000    0.7466808   -3.7346265     0.942296   -1.7656444 -7.3420903e-05 
 1494000   0.46407669   -3.9208964   0.41084082   -2.8719501 -1.9807111e-05 
 1495000    1.0694203   -3.9423508   0.78303145   -1.6888664 0.00018618473 
 1496000   0.84217913   -4.0500406   0.24814045   -2.6439038 -8.5059645e-05 
 1497000   0.99837637   -3.5167854   0.41152496   -1.7324929 -4.4932015e-05 
 1498000   0.87653427   -3.8898211   0.55847822   -2.1261082 -4.7521071e-05 
 1499000   0.92226367   -3.2515455   0.52473051   -1.4587024 -0.00028770822 
 1500000    1.1812133   -3.4721425    0.2948898   -1.5530844 0.00011759244 
 1501000    1.1383436   -3.3862045   0.47778566   -1.3431964 0.00039599349 
 1502000   0.82146087   -4.2516939   0.59373531   -2.5284499 -2.480637e-05 
 1503000    1.2379902   -3.8229099   0.30118336     -1.81949 -0.00019772666 
 1504000   0.76315979   -4.4515166   0.22951983   -3.1726521 -0.00010701982 
 1505000   0.61228007   -3.6783051   0.60294897    -2.233471 -8.9052443e-06 
 1506000   0.85742198    -4.290719    1.1044165   -2.0073473 -0.0004494472 
 1507000    0.9336558    -3.862107   0.24171926    -2.336611 -0.00018246477 
 1508000    1.1377285   -3.5327915   0.40845858   -1.5599561 0.0002277475 
 1509000   0.72265918   -4.2238793     0.318865    -2.911358 0.00024953235 
 1510000    1.2237022   -3.9537078   0.69352648   -1.5775907 9.9824913e-05 
 1511000   0.93834272   -4.0145675   0.58835479   -2.1359915 2.3024834e-05 
 1512000   0.98428413   -4.0381365   0.37650868   -2.3082371 -0.0001317403 
 1513000    0.8266825   -3.3934706   0.36234362   -1.8944386 -1.815334e-06 
 1514000    1.2279861    -3.741924   0.50373697   -1.5497061 0.00012045419 
 1515000    1.3264781    -3.915126   0.86300317   -1.2282154 -0.00014937343 
 1516000   0.80128961   -4.0367852   0.54834131   -2.3866706 -0.00028823065 
 1517000   0.90492393   -4.1203669   0.72926823   -2.1468283 -0.00025682212 
 1518000    1.2125519   -3.1250031    0.5251996  -0.93254459 0.00015737416 
 1519000   0.79211016   -3.9812152   0.68630614   -2.2057576 -0.00020521068 
 1520000     1.093779   -4.1141358   0.62380262   -1.9863871 -0.00021017008 
 1521000    1.0773399    -3.784178   0.82538496   -1.4774508 -4.6725835e-05 
 1522000   0.78381505   -4.1286333   0.42539722   -2.6254904 -0.00019983494 
 1523000   0.66126311   -4.3504605    1.1345845   -2.3066392 -0.0002529733 
 1524000    1.3737352   -3.4353548   0.35014139   -1.1963275 0.00034037494 
 1525000   0.66135924   -3.8034151   0.93915818   -1.9548879 0.00052639272 
 1526000    1.0548756   -4.0931344   0.26040264   -2.3822778 1.0750628e-05 
 1527000   0.99451583    -3.924745   0.58167871   -1.9756071 -2.2448551e-05 
 1528000   0.66471871   -3.6799182   0.65009676   -2.1158332 -0.00018971011 
 1529000    1.2450671   -3.9170975   0.55914821   -1.6459821 -9.269164e-05 
 1530000    1.0072593   -4.4126188    1.1695883    -1.858049 -0.00073154893 
 1531000    1.0678515    -4.070862   0.25575901   -2.3468072 -0.00010666682 
 1532000    1.0893338   -4.2249075   0.48438518   -2.2426884 -0.00039962671 
 1533000    1.1953023    -3.528806   0.60129753   -1.2839678 0.00082492206 
 1534000   0.99945361   -4.4470333    0.3743201   -2.6984645 -1.4197788e-05 
 1535000   0.92684251   -4.1889996    1.1156755   -1.7989156 -0.00011811705 
 1536000    1.3127802   -3.5937315   0.85778621  -0.93087256 -3.5861958e-05 
 1537000   0.71818363    -3.712263   0.46460685   -2.2601537 -6.6726665e-05 
 1538000   0.73427424   -3.4921657   0.30085048   -2.1816881 0.00040475029 
 1539000   0.96299269    -3.622676   0.44881387   -1.8497472 9.9295406e-05 
 1540000   0.97722286    -4.352216   0.33182996   -2.6767046 0.00015616142 
 1541000   0.71189097   -3.7580517   0.91242068   -1.8667809 1.6933732e-05 
 1542000    1.1767875   -3.3070529   0.56630166   -1.1226684 0.00020441045 
 1543000   0.60973338   -3.8279157   0.79210369   -2.1974286 -0.00048716832 
 1544000    1.0021864    -4.233156   0.21147103   -2.6436787 -6.7638347e-05 
 1545000    1.0111416   -3.8842765   0.77417879   -1.7197781 -6.0373794e-05 
 1546000   0.89766831   -4.2895844   0.72565468   -2.3296358 -0.00023150986 
 1547000    1.3411447   -3.8809609   0.42593835   -1.6109486 0.00031005286 
 1548000   0.68142165   -4.0470092   0.83899239   -2.2710621 -0.00010374538 
 1549000    1.2356844   -3.7722565   0.47368302   -1.5995074 4.5669945e-05 
 1550000    0.8445626   -3.8248246   0.31642237   -2.3471287 3.384694e-05 
 1551000    1.2493596   -3.5312649   0.55044765   -1.2629479 -0.0003962086 
 1552000   0.98837622   -3.7674887   0.49433809   -1.9141334 -0.00047124259 
 1553000    1.1040177   -3.7449027    0.3000812   -1.9267972 0.00029582058 
 1554000   0.99524314   -4.0725608   0.50781791   -2.1962836 -3.5421063e-05 
 1555000   0.93469258   -3.6485931   0.68199339   -1.6813975 -0.00026903019 
 1556000    1.0115626   -4.3579895   0.75909715   -2.2079938 -3.447012e-05 
 1557000    1.4196414   -3.7274818    0.9373758   -0.8380991 -0.00013120216 
 1558000   0.81816186    -4.194293   0.70379752   -2.3655229 -0.00028676186 
 1559000    0.8850025   -2.9151528   0.11094255   -1.5873318 0.0001812396 
 1560000    0.7377792   -2.9289024   0.25651921   -1.6579368 -3.3329857e-05 
 1561000    1.0659339   -2.9507122   0.59647662  -0.88857651 -0.00022193652 
 1562000    1.1214209   -2.9684724   0.56393886   -0.8625798 -0.00043037003 
 1563000   0.91846163    -3.713183   0.25521229    -2.195086 0.0001951292 
 1564000     1.171267    -3.505487   0.21552021   -1.6794748 6.8894254e-05 
 1565000   0.80640488   -4.2156058     0.727616    -2.379183 9.6198866e-06 
 1566000     1.096044   -3.7865788    0.3899246   -1.8895936 -0.00031494911 
 1567000    1.0623129   -4.0122572   0.58669417   -1.9648828 0.00030964828 
 1568000    0.6252643   -2.9890667   0.33990668   -1.7894217 0.00089820861 
 1569000   0.77472345   -4.0288307   0.74399962   -2.2195864 -2.0213589e-05 
 1570000    1.2257738    -3.511035   0.91442896  -0.91116706 -9.9861645e-05 
 1571000   0.91918214   -4.2445336   0.45437094   -2.5262872 -6.0731193e-05 
 1572000    1.0198404   -4.1300732   0.64965479   -2.0781378 -0.00010295467 
 1573000   0.60853566   -3.8597006   0.45659443   -2.5663696 0.00033507467 
 1574000    1.2743019   -4.0521985   0.63855572   -1.6614777 -0.00030615191 
 1575000    1.0025459   -3.8726916   0.46414349   -2.0300474 -0.00012547439 
 1576000   0.93705815   -4.3486516   0.41918743   -2.6410092 0.00010439476 
 1577000     1.068905   -4.3109874   0.85994405   -1.9812991 -0.00013868716 
 1578000    1.4201754   -3.2238157   0.63886809  -0.63220651 8.8673074e-05 
 1579000     1.057612   -3.6565102   0.75160512   -1.4506886 -0.00032823317 
 1580000   0.94764381   -3.9186672     0.489029    -2.126628 -0.00055694105 
 1581000    1.0301971   -3.5687175   0.51207897   -1.6401176 -0.00041760577 
 1582000    1.6668844   -4.1580917   0.54449916   -1.3216266 9.348316e-05 
 1583000   0.96153641   -3.6474538   0.26925443   -2.0560868 9.0518389e-05 
 1584000   0.94969863   -3.9564869   0.47703953   -2.1736117 0.00027606238 
 1585000     1.081699   -3.5099722   0.29365542   -1.7289806 -0.0001539914 
 1586000   0.97988467   -3.9261506   0.57103435   -2.0077748 0.00017812993 
 1587000    1.0732412   -3.5347016   0.71249969   -1.3464952 -9.3450124e-05 
 1588000   0.78196403   -3.3679799   0.51266034    -1.780119 5.1507349e-05 
 1589000    1.4228167   -3.7076711   0.19551931   -1.5557789 7.3632585e-05 
 1590000   0.95132204   -4.1710885   0.72076419   -2.1422565 -0.00031051977 
 1591000    0.7541431   -3.6365228   0.20831475   -2.3912613 0.00025589426 
 1592000   0.93454197   -3.8322698   0.76710785   -1.7801667 -0.00016794167 
 1593000   0.62911068   -3.9772299   0.66710426   -2.4450985 -0.00016294135 
 1594000   0.81070674   -3.8877466   0.64107229   -2.1319526 2.4418489e-05 
 1595000   0.98737405   -3.6607957   0.61327422   -1.6898822 -0.00023953364 
 1596000   0.97903697   -4.3210056   0.37368547   -2.6011443 -4.6632534e-05 
 1597000    1.1815504   -3.8649697    1.3083261  -0.93201178 0.00020177408 
 1598000   0.90749282   -3.8885912   0.76287673   -1.8779118 3.3796861e-05 
 1599000   0.74117752   -3.7480313   0.18843924   -2.5404729 0.00027838263 
 1600000   0.87014676   -3.8051596   0.64011311   -1.9685947 -0.00014073672 
 1601000    1.3017726   -3.3954361   0.46774422   -1.1377545 -0.00035956616 
 1602000   0.67631756   -3.8093256   0.35951274   -2.5198762 -0.00015388935 
 1603000    1.6674729   -3.9787696   0.48489943   -1.2010949 -5.7586559e-05 
 1604000    0.7566247   -3.5740701   0.40079576   -2.1329154 9.8636395e-07 
 1605000   0.67701534   -4.1269849    0.2247568    -2.971332 -0.00013082389 
 1606000   0.84826333   -3.0585761   0.36988879   -1.5223252 0.00016402727 
 1607000   0.87423552   -4.3246329   0.63258064   -2.4899784 -0.00040429617 
 1608000    1.3749814   -3.2322781   0.41833061  -0.92334801 -0.00011053046 
 1609000   0.98713888   -3.5585192   0.40282456   -1.7983787 3.7790564e-07 
 1610000    1.2953641   -2.7364152    0.8619627 -0.093326871 1.1390282e-05 
 1611000    1.8232754   -4.0666112   0.38101082   -1.1785968 -8.17826e-05 
 1612000    1.1580706    -3.871882   0.55405851   -1.7254765 5.0611206e-05 
 1613000   0.91766524     -4.22854   0.65067975   -2.3160706 0.00014573524 
 1614000    1.0068385   -4.3949718   0.32109783    -2.689471 -8.8063097e-05 
 1615000   0.98567919   -4.0172711   0.77478828   -1.8871739 -7.1781768e-05 
 1616000   0.71793417   -3.8699116   0.57871376   -2.3040383 1.2421298e-05 
 1617000   0.93501817   -3.5784641   0.36739827   -1.9254159 9.7665294e-05 
 1618000     1.254038   -3.5023176   0.47805218   -1.2999631 -0.00030902431 
 1619000   0.62032905   -3.5813554   0.28610599    -2.442297 0.00089710698 
 1620000   0.77977314   -3.3267861   0.39338158   -1.8612165 0.00048115998 
 1621000    1.1977815   -4.0734918    0.4096102   -2.0169321 2.5189279e-05 
 1622000    1.3989016   -3.6662302   0.41668561   -1.3260548 0.00027348535 
 1623000   0.87792121   -4.1680953   0.34919476   -2.6117589 -4.1972546e-05 
 1624000    1.9170138   -4.0526217   0.46981133  -0.94691632 0.00018131321 
 1625000   0.83132739   -4.1020298   0.50412355   -2.4548311 -0.00022775884 
 1626000    1.1454737   -3.9651164   0.38764793   -2.0024422 0.0001876095 
 1627000   0.95432672   -3.5727095    1.1002731   -1.1602372 -0.00012157259 
 1628000   0.97510081   -3.9734275   0.45590013   -2.1767637 0.00031399611 
 1629000    1.3517165   -3.9194636   0.35879263   -1.7020607 -7.6927067e-05 
 1630000    1.2110795   -4.3163077   0.57211795   -2.0789554 -3.9192336e-05 
 1631000   0.68772945   -4.1951038   0.37012006   -2.8793557 0.00021084321 
 1632000    0.8573576   -3.9482854   0.71953592   -2.0498828 -3.0544557e-05 
 1633000   0.96653664   -3.7202228   0.63739321   -1.7538417 -7.99467e-05 
 1634000    1.1465221   -3.6506398   0.24356905   -1.8306028 9.4221256e-05 
 1635000   0.86969008   -3.8969534   0.35746446    -2.343665 -0.00015473822 
 1636000    1.6311187   -4.1824125   0.74433757   -1.1952867 0.00015413768 
 1637000    1.0458377   -4.3416821   0.41142398   -2.4922314 -1.5638893e-05 
 1638000     1.091861   -3.8788955   0.17646631   -2.2011203 0.00024725777 
 1639000    1.1332396   -3.6356273    0.9367316   -1.1406912 -0.00019074277 
 1640000   0.62034873   -3.7891476   0.40081738   -2.5353507 -6.6692843e-05 
 1641000    1.1278991   -3.4057009   0.28774451   -1.5670951 -0.00026388264 
 1642000   0.80368088   -3.9426343   0.45169739   -2.3858757 -0.00028011638 
 1643000   0.72716501   -3.7396681   0.58891369   -2.1509026 0.0001292126 
 1644000     1.469132   -3.6887686   0.24238555   -1.4263266 0.00018289174 
 1645000   0.62553364   -3.6645325   0.52793442   -2.2764893 0.00029431945 
 1646000   0.85201211   -3.7446629   0.65658071   -1.9165655 0.00020812204 
 1647000   0.95310956   -2.8681059   0.82790932  -0.72967095 0.00012633123 
 1648000    1.0316413   -3.2711324   0.34209286   -1.5105328 -3.2712523e-05 
 1649000      1.94525   -2.9954026   0.38939773  0.068713946 0.00026878692 
 1650000    1.5277236   -3.5770942   0.31118982   -1.1652844  8.96006e-05 
 1651000   0.80594143   -3.9301573   0.66592814   -2.1560597 -5.068467e-05 
 1652000   0.84414623   -3.6612728   0.31731779   -2.1832539 0.00024821782 
 1653000   0.94195065   -3.2150508   0.36905338   -1.5508153 2.6271458e-05 
 1654000    1.5360464   -3.7135853   0.67395412  -0.92756732 0.00053205439 
 1655000    1.3161342   -4.1416641   0.44102318   -1.8909564 0.00046222964 
 1656000     1.349324   -4.2699658   0.25064289   -2.1640025 -2.8482962e-06 
 1657000    1.2819878   -3.9287211   0.66988068   -1.4961073 -0.0001173842 
 1658000    1.2219524   -4.1429349   0.48012311   -1.9826272 0.00028668655 
 1659000    1.5115966   -3.0909086   0.34658216  -0.66588109 0.00027577839 
 1660000    1.0423657   -3.7353458   0.85654108   -1.4455519 1.7944268e-05 
 1661000   0.94477126   -3.9677098    0.3093354   -2.3593139 -9.5325398e-05 
 1662000    1.3202018   -4.0433207   0.54355774   -1.6844855 0.00025059627 
 1663000    1.3224424    -3.798914   0.52083547   -1.4597202 -0.00017298132 
 1664000    1.1320743   -3.8531954   0.58425016    -1.712343 0.00061164957 
 1665000   0.94581909   -4.1472417     1.082902   -1.7638385 -0.00015955612 
 1666000   0.86116965   -4.2500771    0.3340532   -2.7319156 5.3294423e-05 
 1667000   0.75131174   -2.6030373   0.78784284  -0.78214084 -0.00026259021 
 1668000    1.5253332   -2.4552544    0.2150468  -0.14287439 -0.0001603289 
 1669000    1.6248852   -3.9019682   0.93287081  -0.73488016 0.00032661365 
 1670000   0.88376831   -3.8873631   0.64963898   -2.0225427 -2.617582e-05 
 1671000     1.111994   -3.6985639   0.55558939   -1.6139827 -0.00015093999 
 1672000    1.1640609   -4.2297505   0.60757838   -2.0215884 0.00039903089 
 1673000     1.132852   -3.4682067   0.78325018   -1.1272851 -0.00021328329 
 1674000    1.1029702   -4.0708798   0.55071533   -2.0035805 -0.000231688 
 1675000    1.4614141   -4.2974963   0.64651084   -1.6415411 -0.00038792603 
 1676000     1.185504   -3.8734408    0.3949348   -1.8484379 0.0001006069 
 1677000    1.1189954   -4.0824337   0.27592478   -2.2678902 -0.00017311265 
 1678000   0.71649586   -3.8156468   0.57089611   -2.2595689 0.00017482392 
 1679000    1.6484024   -4.3218895   0.45885009   -1.5964861 0.00013604085 
 1680000    1.1463225   -4.3557833   0.38919413   -2.3903957 0.0001433976 
 1681000   0.80167244   -3.2883805   0.59402137   -1.5920595 -4.2667257e-06 
 1682000   0.75315667    -3.483409   0.63681389   -1.8110047 -0.00014449497 
 1683000    1.0065802    -3.668186   0.59223696   -1.6919012 -0.00024400528 
 1684000    1.5628552   -3.6444524    0.4880257   -1.0075008 -0.00041667687 
 1685000   0.68406216   -3.6508789   0.32754701   -2.3827464 -0.00016778007 
 1686000    1.2987778    -3.480335    0.7324992  -0.96201636 -0.00016158745 
 1687000    0.7851123   -4.1640243   0.44528283   -2.6392121 -0.00028329376 
 1688000   0.66488797   -3.7279368   0.63697182   -2.1767441 0.00021372117 
 1689000    1.3034615   -3.9746124   0.80739158   -1.3749612 -0.00015966253 
 1690000   0.87500646   -3.4635084   0.32075067   -1.9396239 -0.00012105306 
 1691000   0.84281044    -3.716325   0.45044491   -2.1070157 0.00027768097 
 1692000   0.75966293   -3.2293818    0.6480296   -1.5368157 0.00015602406 
 1693000   0.80444741    -4.248728     0.197305   -2.9453078 0.00027660931 
 1694000    1.2659343   -3.8832958   0.87265053   -1.2699856 -0.00031957145 
 1695000    1.1470203    -4.179074   0.43473199    -2.167189 0.00060262361 
 1696000   0.62224796   -3.9755734   0.29473407   -2.8252483 3.3407495e-05 
 1697000   0.90127014   -4.1337282   0.38854765   -2.5059341 -0.00015116844 
 1698000    1.2272156   -3.4653438   0.33376582   -1.4441565 8.1899848e-05 
 1699000   0.71398873   -4.2197408   0.63144527   -2.6065611 -5.3803625e-05 
 1700000    1.0454844   -3.5949568   0.22597903   -1.9314367 0.00044940279 
 1701000    1.1001491   -3.1606385   0.39823108   -1.2497024 0.00046329478 
 1702000   0.87872634   -4.0900479   0.20656023   -2.6752389 1.6804719e-05 
 1703000    1.0353787   -3.5691227   0.54524541   -1.6002316 2.6164658e-06 
 1704000   0.79103938   -3.6622132   0.51364756   -2.0608864 7.5550995e-05 
 1705000    1.1760723   -4.4512794   0.18735485   -2.6468251 -6.8011728e-05 
 1706000    1.4214348   -4.0148019   0.45114695   -1.6091822 0.00019343779 
 1707000    1.0533244   -3.8195454   0.67888564   -1.6923386 -0.00041939034 
 1708000   0.77081852   -3.6432294   0.68283605   -1.9005178 -0.00030669423 
 1709000    1.0179394   -2.7033743   0.87940928  -0.42429844 0.00013015354 
 1710000    1.0346888   -4.1780471   0.78559481   -1.9697552 -0.00023980479 
 1711000    1.0296434   -3.8199082   0.45957674   -1.9445717 -0.00019121329 
 1712000    0.5504218   -3.7670085   0.35822332   -2.6519552 0.00010168431 
 1713000    1.1632878   -4.1485607   0.61440113   -1.9346389 0.00032613099 
 1714000    1.3618004   -3.5571677   0.38770767   -1.2969844 -0.00013280844 
 1715000   0.86349794   -3.8850018   0.76745751   -1.9302346 -0.00019279356 
 1716000    0.9374494   -4.2991615   0.52008313   -2.4900855 -0.00026163346 
 1717000   0.92752649   -4.5093921   0.73801905   -2.4960241 0.00015738627 
 1718000   0.72150446   -3.5569235   0.57081381    -1.994041 -0.00034616305 
 1719000    0.9429667   -3.9740645   0.46957715   -2.2079082 -6.676692e-05 
 1720000    1.4292655    -3.179953    1.0209469    -0.193766 -0.00021622995 
 1721000    1.9792387   -4.1874337   0.46551037   -1.0004701 0.00021865048 
 1722000   0.68920001   -3.9399247   0.46866564   -2.5236091 0.00017625946 
 1723000    1.2098679   -4.1384812   0.79952346   -1.6753894 9.2434299e-05 
 1724000   0.85432864   -3.8962081   0.41006357   -2.3114426 -1.9418038e-05 
 1725000    1.3856795   -3.9955289   0.34144125   -1.7487783  0.000159974 
 1726000   0.89224223   -4.1696985   0.49790909   -2.4449564 6.9765811e-05 
 1727000   0.99996713   -3.5025496   0.75249707   -1.3750978 -0.00012256973 
 1728000    1.2841625    -3.550777    0.3747791   -1.4102744 0.00096269007 
 1729000    1.5048749   -3.7558025   0.41063706   -1.2759624 -0.00016041214 
 1730000    0.6477503    -3.825859   0.45741562   -2.4777867 -0.00051605006 
 1731000   0.81599131   -4.3084515   0.99843827   -2.1880251 -6.1381318e-05 
 1732000    1.5538285   -3.5016195   0.60346811  -0.76163719 0.00049425545 
 1733000   0.95075983   -3.5353314   0.18283947   -2.0451972 0.00022791197 
 1734000   0.74845999   -3.8810925   0.28951004   -2.5624499 0.00011391881 
 1735000   0.92595989   -3.6836668   0.51748662   -1.8929853 -1.7445285e-05 
 1736000   0.82364395   -4.3731333    1.0230285   -2.2175944 -0.00021936723 
 1737000    1.1926483   -3.5657272    0.4146078    -1.511228 3.6493405e-05 
 1738000   0.65093516   -3.8961344   0.72086307   -2.2802355 0.00015302751 
 1739000    1.1064977   -3.9365708   0.53190147   -1.8832349 -0.00015423184 
 1740000   0.89556556   -3.8405881   0.40015875   -2.2090267 0.00041673759 
 1741000   0.51220221   -4.2131481   0.56041925   -2.9484509 -0.00034964377 
 1742000   0.93579615   -3.3372331   0.65927692   -1.3912365 0.00038184117 
 1743000   0.97480639   -3.9774814   0.56762457    -2.069498 0.00035096481 
 1744000    1.0217623   -4.0083648   0.63630016   -1.9671415 -0.00022575877 
 1745000   0.71339886   -3.6968709   0.33965716   -2.3762903 0.00034165284 
 1746000    1.2719323   -3.6590802   0.42865128    -1.481522 -0.00023775281 
 1747000   0.96411275   -4.3130384   0.46245038    -2.524933 -8.5118778e-05 
 1748000    1.0715317   -4.1229035   0.30397796   -2.3455694 0.00011969165 
 1749000    1.2304948   -4.2646019   0.72828164   -1.8443899 -0.00022933361 
 1750000   0.84163606   -4.0445836   0.32528873   -2.5620453 0.00023380563 
 1751000    1.1302843   -3.8607045   0.54745789   -1.7591056 0.00067280909 
 1752000   0.56623142   -3.9420512   0.37062091   -2.7928621 0.00020304332 
 1753000   0.78383794   -3.8517605   0.75715559   -2.0168278 3.8167989e-06 
 1754000    1.0067378   -3.4715201   0.49508628   -1.5921693 0.00020880828 
 1755000   0.93311293   -3.9571792   0.43986292    -2.234286 0.0003658505 
 1756000   0.48521325    -4.048053   0.27062754   -3.1102572 -6.3642753e-05 
 1757000    1.0792219   -4.0125757   0.75820308   -1.7704425 -0.00015978347 
 1758000   0.92188966   -3.9173626   0.69731005   -1.9524543 -5.6209952e-05 
 1759000   0.79087331    -4.131972   0.21161868   -2.8329025 4.6768175e-05 
 1760000   0.84832504   -3.8998569   0.47893886   -2.2544711 0.00018654901 
 1761000    1.1714807   -3.9421377   0.77826012   -1.5530916 -9.1809748e-05 
 1762000   0.92775103   -3.7327008   0.46770705   -1.9893361 0.00015217307 
 1763000    1.3871591    -3.574366   0.33507841   -1.3319439 2.5464405e-05 
 1764000      0.59829   -3.9110167   0.13609442   -2.9522735 -4.8415314e-05 
 1765000   0.87557336   -3.1388138   0.27521129   -1.6596891 0.00082709184 
 1766000    1.3842139   -3.9072759   0.61822282    -1.385759 0.0003160431 
 1767000    1.5377547   -4.4708539   0.96061153   -1.3958296 -0.0001402092 
 1768000    1.0010436   -4.0930923   0.51601336   -2.2006439 9.1216176e-06 
 1769000   0.77426967   -3.3658212   0.23881003   -2.0623904 0.00037727649 
 1770000    1.2106402   -4.1201739   0.52954664    -1.925997 1.0815959e-05 
 1771000   0.91168544   -3.6335273   0.24047985     -2.13948 -0.00016107267 
 1772000    1.0661377   -4.1039533   0.41767128   -2.2203427 8.4790192e-05 
 1773000   0.84515106   -4.0174547   0.41659424   -2.4387777 0.00029628277 
 1774000   0.92039604   -3.8568524    0.4328116   -2.1584963 0.00019481049 
 1775000    1.1038939   -4.0571719   0.52935942   -2.0099584 5.696494e-05 
 1776000   0.94257867   -4.0714316   0.53235677   -2.2430292 -0.00017476947 
 1777000    1.0571575   -4.1596478   0.68640243   -2.0196538 8.6846584e-05 
 1778000     1.107058   -3.3269879   0.27776936   -1.5270137 -2.6697693e-05 
 1779000    1.0665064   -3.3933818   0.35188123   -1.5750543 0.00035393739 
 1780000    0.8003012   -4.3753177   0.19313184   -3.0817717 -0.00018425447 
 1781000    0.9681917   -3.0763099   0.40829883   -1.3367475 -8.4041208e-06 
 1782000   0.97348697   -4.3280339   0.31706647   -2.6724228 -0.00037033085 
 1783000      1.01807   -4.0651097   0.80289863   -1.8623648 -0.00035871706 
 1784000   0.66093839   -4.3054619   0.63974486   -2.7569267 -5.0457573e-05 
 1785000   0.93074438   -3.8252324   0.52473165   -2.0207272 0.00022756306 
 1786000    1.1303176   -3.6868729   0.81839715    -1.314289 -0.00017791922 
 1787000   0.79757468   -2.9176098    0.6399257   -1.1810189 -4.5456066e-05 
 1788000   0.84575035   -4.0393897   0.51932484   -2.3571581 5.7530081e-05 
 1789000    1.1460632   -3.5040254   0.76715845     -1.16103 -9.5787201e-05 
 1790000   0.66847075   -3.9192393   0.44322684   -2.5568652 0.00040544099 
 1791000    1.3891574    -3.691167   0.49082234   -1.2902533 0.00014082949 
 1792000    1.8849557   -3.9767351   0.62587295  -0.75904809 -0.00016546821 
 1793000    1.1756031   -3.9919693    0.4188956   -1.9566194 0.00040473243 
 1794000   0.75374386   -3.3759472   0.39529512   -1.9442542 0.00012467915 
 1795000   0.77529461   -3.9989155   0.45512966   -2.4777557 -0.00034113524 
 1796000   0.89414127   -3.9991139   0.82557994   -1.9440897 0.00010391339 
 1797000    1.0355306   -3.7891856    0.4924784   -1.8728527 -0.00023610098 
 1798000   0.97931331   -4.0669998    1.0038379   -1.7166061 -0.00027118749 
 1799000    1.0951332   -4.1254958   0.59860153   -2.0210862 -0.00027866246 
 1800000   0.73905357   -3.3099331   0.69202114   -1.6017133 0.00016700526 
 1801000    0.8148301   -3.9018434    1.1369178   -1.6445342 -0.00024321895 
 1802000    1.2874816   -3.5988176   0.88273942  -0.94579101 3.2444439e-05 
 1803000   0.73920464   -3.9217562    0.7767455   -2.1286043 0.00011148281 
 1804000   0.87480122   -4.1518148   0.65004569   -2.2989174 -0.00011730097 
 1805000    1.0704474   -3.8218387    0.4303658   -1.9196076 -0.000207651 
 1806000   0.93993052   -4.2386321   0.23322983   -2.7129978 -1.8119823e-05 
 1807000    1.1210931    -3.725582   0.68321225   -1.5008668 -0.00015320513 
 1808000    1.0784034    -4.116935   0.32215898   -2.3119713 -0.00021011661 
 1809000   0.88174955   -3.2879327   0.46967884   -1.6058482 -7.7705863e-06 
 1810000   0.76112839   -3.9490292   0.43571376   -2.4667639 0.00016615523 
 1811000    1.1497271   -3.6459782   0.43193961   -1.6331638 0.00029196275 
 1812000    1.1710134   -3.9617844   0.36808307   -1.9835579 7.1798231e-05 
 1813000   0.98558957   -4.0841243    0.9315964   -1.7973422 -0.00022049719 
 1814000    1.0787975   -3.6773954    0.6420137   -1.5520351 0.0003160582 
 1815000   0.79167492   -3.4854125   0.44890472   -1.9479548 1.8647507e-05 
 1816000    0.7886758   -2.7847556   0.51807657   -1.1822498 -0.00025120839 
 1817000    0.8866595   -3.7920104   0.44195311   -2.1309005 -5.7521506e-05 
 1818000    1.2941203   -4.1453889   0.88094991   -1.4850236 -0.00018706355 
 1819000    1.2457599   -4.1452712   0.70986983   -1.7224815 0.00020109528 
 1820000    1.0486662   -4.2867948   0.49327772    -2.351601 0.00038041053 
 1821000    0.7875461   -4.1403731   0.35442593   -2.7030713 -0.00025563991 
 1822000    1.1903907   -4.1669953   0.56127998   -1.9689281 -0.00024309463 
 1823000    1.0808081   -3.1587231   0.63559332   -1.0370187 0.00012544992 
 1824000    1.0047936   -4.3887509   0.70992239   -2.2972373 -5.5768168e-05 
 1825000   0.67120849   -4.0060352    1.2266683   -1.8564553 -0.00018236901 
 1826000   0.99692387   -3.9638474   0.37355675   -2.2195203 0.00035187649 
 1827000   0.99205965     -4.05717   0.38254293   -2.3105451 -7.3107742e-05 
 1828000    1.0704654   -3.8935823   0.62731879   -1.7943735 -0.00016947791 
 1829000   0.86096277   -3.4128636   0.47428185    -1.754758 -0.00047654419 
 1830000    1.3070457   -4.0956571   0.87990559   -1.4185636 -0.00028540761 
 1831000     1.170629   -3.8231515   0.43211198   -1.7814247 -0.00011220791 
 1832000   0.77760925   -2.2820946   0.49054582  -0.72233601 0.00045611184 
 1833000    1.0608557    -3.983602    0.2115326   -2.3133929 -0.00010633764 
 1834000   0.93765232   -4.0243156   0.60975784   -2.1252858 -0.0001889891 
 1835000   0.69569712    -3.702982   0.88641989   -1.8599786 -1.1434768e-05 
 1836000   0.89965443   -3.4637371    1.1072562   -1.1194561 -0.00037830538 
 1837000   0.97807888   -2.6376333   0.67683446  -0.61594037 0.00029383491 
 1838000   0.90433897    -3.962832   0.38178359   -2.3375824 -0.00025983679 
 1839000    1.7005721   -2.5541654   0.14916397 -0.066714713 0.0002556741 
 1840000    1.0059283   -3.5708791   0.50742075   -1.6803069 -0.00018871324 
 1841000   0.87944865   -3.3221896    0.8283762   -1.2845715 1.2259266e-05 
 1842000    1.1107358   -3.2602419   0.14478761   -1.5881926 0.00017586486 
 1843000   0.87019559   -3.8896138   0.29994411   -2.3931507 0.00068112185 
 1844000    1.0598201   -3.0606158   0.58183847   -1.0215247 9.3342849e-06 
 1845000    1.0597254   -3.9620232   0.65331805   -1.8515827 0.0001014788 
 1846000    1.0706953   -4.2294993   0.50617474   -2.2511186 6.8568181e-05 
 1847000    1.3352287   -4.1779234   0.73623801   -1.6057459 1.7021896e-05 
 1848000    1.3151833   -3.8515209   0.61975015   -1.4233937 -0.00018944138 
 1849000    1.0971152   -3.9999394   0.48081379   -2.0105922 -0.00016530507 
 1850000    1.0926683   -3.7654828   0.48923683   -1.7738271 -0.00011406779 
 1851000    1.1237459   -3.9156371   0.16501052    -2.205476 5.5913389e-05 
 1852000   0.69043397   -3.9294692   0.26639885   -2.7137236 -4.3050738e-06 
 1853000    1.0179456   -4.2601506   0.62795552   -2.2325199 2.2090405e-05 
 1854000    1.0229333   -4.2395876    1.2312974    -1.601757 -0.00012500482 
 1855000    1.0010587   -4.0484476   0.69568763   -1.9763042 0.0002911179 
 1856000    1.0098723   -3.9584465   0.46616935   -2.1037027 0.00010511569 
 1857000    1.2262456   -2.5974114   0.51521012   -0.3961136 0.00027367373 
 1858000    1.0094347   -3.8823575   0.36998665   -2.1243981 -0.00016405268 
 1859000    1.1662803   -3.5933295   0.31572679   -1.6739673 6.3056276e-05 
 1860000   0.85347942   -4.0205279   0.53723697   -2.3097568 0.00013519632 
 1861000   0.98471951   -3.7671218    0.8126287   -1.6005038 -0.00038728923 
 1862000    1.9195374   -2.8416681   0.41764729    0.2153432 -3.7152232e-05 
 1863000    1.2170853   -3.7069929   0.71964947   -1.3138511 -0.00017814957 
 1864000    1.5070703   -4.3116292   0.62923896   -1.6101686 8.8220597e-05 
 1865000   0.97546777   -3.5803229   0.34611409   -1.8929406 0.00011200392 
 1866000    1.3043102   -3.5413695   0.41805001    -1.329893 -4.1974184e-05 
 1867000   0.73220364   -3.7529293   0.34950389   -2.3966454 0.00017670208 
 1868000   0.71456128   -3.8933447    0.4203514   -2.4904716 -7.0048337e-06 
 1869000   0.95802514   -4.0587124   0.66819686    -2.073231 -0.00010400334 
 1870000    1.0603916   -4.0516346   0.69223834   -1.9013578 -0.00012779867 
 1871000    1.1828019   -3.6803151   0.78741008   -1.2665524 4.1860659e-05 
 1872000   0.80615463   -3.3790854   0.37586396   -1.8947588 -8.5470545e-05 
 1873000    1.0885142   -4.3419399   0.42275646   -2.4224764 1.6832692e-05 
 1874000   0.87462502    -4.017866   0.96463324   -1.8506234 -0.00022861091 
 1875000    1.3462428   -4.1078757   0.36366819   -1.8931236 0.00015953583 
 1876000   0.96520377   -4.1124256   0.51957768   -2.2656927 -9.3472114e-06 
 1877000    0.7920827   -3.9656432   0.45512159   -2.4214079 0.00011848201 
 1878000   0.82796479   -3.6357304    0.4873544   -2.0099244 0.00031498005 
 1879000   0.77213904   -3.8159598    0.2346477   -2.5196209 -0.00025879904 
 1880000    1.0738707   -3.8921506   0.67914568   -1.7364327 -0.00024475335 
 1881000   0.96591619   -4.4250053   0.10094816   -2.9959224 -1.4307086e-05 
 1882000   0.98564198   -3.7132291   0.63729007   -1.7206813 -0.00016121526 
 1883000   0.95717823   -3.4293274   0.28767494   -1.8255324 0.00024867051 
 1884000    1.0205621   -4.3697295    0.4491848   -2.5172718 -2.9126299e-05 
 1885000    1.0249161   -3.9662543   0.53567531   -2.0213194 -0.00027050917 
 1886000   0.65925144   -3.7395307   0.38801375   -2.4450462 9.1377069e-05 
 1887000     1.200713    -3.865562   0.72379136   -1.4907903 -0.00029647821 
 1888000    1.0974775   -4.1120371   0.37404258    -2.228963 -9.2270317e-05 
 1889000    1.6186059   -3.9528119   0.45285979    -1.274369 0.0002949965 
 1890000   0.94447601   -4.0323222   0.33685066    -2.396817 2.7178009e-05 
 1891000   0.98236357   -4.1652008   0.28715965   -2.5272913 6.8069341e-05 
 1892000   0.86003454   -3.6967884    0.6384548   -1.8757861 -4.2757524e-06 
 1893000    1.0793424   -4.0526817   0.38843324   -2.1801526 2.7144935e-05 
 1894000   0.90503988   -4.1240304   0.23109499   -2.6485056 0.00014452242 
 1895000   0.61138449   -4.0535209    0.7626356   -2.4502316 3.2909438e-05 
 1896000    1.0308012   -3.5453922   0.51650648    -1.611534 0.0006478673 
 1897000    0.8685367   -4.1380296   0.15167819   -2.7921134 0.00026738917 
 1898000   0.99962444   -3.9556684   0.30095412   -2.2802307 0.00025409473 
 1899000   0.90709448   -3.6171259   0.54992267   -1.8199483 2.8903997e-05 
 1900000     1.052834   -3.7613635   0.71514573    -1.598571 -8.1654676e-05 
 1901000   0.76812392   -3.6583563    0.5954097   -2.0067762 -0.0003056823 
 1902000   0.98426326   -4.0664738   0.90395158   -1.8091603 -1.8946088e-05 
 1903000    1.1072543   -3.7470494   0.68014396   -1.5444308 -0.00015802293 
 1904000    1.0721042   -4.2045472   0.48254829   -2.2478557 4.3335977e-05 
 1905000   0.72118151   -3.5986012    0.4944434   -2.1125332 0.0003352698 
 1906000    1.1818158    -3.685283   0.57006546   -1.4902208 0.0003070605 
 1907000     1.222855   -3.5455431   0.33492799   -1.5291895 0.00049431626 
 1908000   0.98374508   -3.2555219   0.30576986   -1.5971025 9.9987593e-05 
 1909000    0.6848901   -3.9933815   0.46661899   -2.5850386 0.0003441194 
 1910000       1.1806   -3.7104655   0.67822391   -1.4089167 -8.4033032e-05 
 1911000    1.5974921   -4.1662905   0.38448399   -1.5852549 -8.3879533e-05 
 1912000   0.84130937    -3.578473   0.29751829   -2.1241543 -0.0002360323 
 1913000    1.1128392   -3.8507454   0.85939339   -1.4611981 -0.00047380449 
 1914000    1.0781325   -4.1047147   0.56724605   -2.0550365 -4.8503295e-05 
 1915000   0.80439869   -4.1019968   0.47343374   -2.5225148 -0.00022691518 
 1916000   0.90669656   -3.7878911   0.50069802   -2.0404853 -6.647718e-05 
 1917000    1.3043292   -3.4426637   0.36667528   -1.2825358 -0.00028496308 
 1918000    1.1598086   -3.9795474   0.35118262   -2.0336279 0.00038229227 
 1919000   0.89110235   -3.8883329   0.36746857   -2.2955986 0.0003293388 
 1920000    1.3565284   -3.6349774   0.39094294   -1.3788079 0.00022309485 
 1921000    0.9927054   -3.9314205   0.50737887   -2.0590718 -9.5183169e-05 
 1922000    1.1538368   -3.9581451   0.54813898   -1.8234806 -4.2517261e-06 
 1923000   0.92136216    -4.142844   0.41851789   -2.4574531 -3.4223192e-05 
 1924000    1.2427742    -3.668919   0.59629132   -1.3638131 8.434846e-06 
 1925000    1.0759984   -3.6808157   0.18672202   -2.0145958 -0.00019674554 
 1926000   0.93536465   -3.8250403   0.73405459   -1.8048593 0.00019708496 
 1927000     1.478139   -3.4305909   0.64013516  -0.75801458 0.00015441022 
 1928000    1.0451318   -4.0626666   0.67285245    -1.952758 -4.2852359e-05 
 1929000    1.0274569   -3.6940705   0.20717372   -2.0741436 0.00017994423 
 1930000   0.74327114   -3.4117147   0.50641293    -1.883304 0.00016923416 
 1931000   0.79397889   -4.0362252   0.47539258   -2.4691117 4.3916255e-05 
 1932000    1.1707165   -4.3079406     1.022591   -1.6756144 -0.00042400749 
 1933000   0.75012166    -3.650769   0.64128292   -1.9780688 -0.00019104185 
 1934000    0.7741974   -4.0940603   0.39372478   -2.6358141 -0.00039851532 
 1935000   0.83501847   -3.0676182   0.39810609   -1.5213617 0.00023023531 
 1936000    1.0582448   -3.9408227   0.56512362   -1.9206124 0.00010702984 
 1937000    1.2421897   -4.0706736    0.6021233   -1.7605394 3.5471593e-05 
 1938000   0.91396088   -3.7908521   0.71896438   -1.8151915 -0.00028628068 
 1939000     0.975825   -3.9867749   0.34341335   -2.3016022 0.00013461733 
 1940000    1.4869107   -3.8151179    0.2908229   -1.4797928 3.6425606e-05 
 1941000   0.96722633   -3.2841749   0.58234846   -1.3718902 -0.00024260924 
 1942000    1.4898588    -3.967798   0.39394212      -1.5253 -0.00026424156 
 1943000    1.3872548   -3.7885974   0.30030352   -1.5808185 0.00016814695 
 1944000    0.3817758   -4.3412658   0.52666254   -3.2896616 -9.2359087e-05 
 1945000    1.3044842   -4.0204294    0.2324484   -1.9943153 0.00032617806 
 1946000    1.0229459   -3.8468344   0.32040171    -2.119882 0.00048338844 
 1947000    1.1257957   -3.9884642   0.90667612   -1.5338191 -0.00039286367 
 1948000   0.68373871   -3.6400646   0.51423132   -2.1856926 -0.00026736484 
 1949000    1.1037875    -3.966317   0.34313289   -2.1054764 0.00036401977 
 1950000   0.81537303   -3.9333235   0.71342257   -2.0987631 -0.00030364169 
 1951000   0.92956034   -3.6654146   0.37703704   -2.0102321 -0.0001270332 
 1952000    1.0645883   -4.0057933   0.29825325   -2.2437311 0.0001098097 
 1953000    0.9541641   -4.2225021   0.64645201   -2.2640744 -0.00024652475 
 1954000   0.73282779   -3.5185388   0.85001797   -1.6608826 -0.00016117636 
 1955000   0.45937279   -4.0282075   0.55962479   -2.8369451 -5.1137468e-05 
 1956000    1.1882395   -3.9204792   0.73802232   -1.5486275 -0.00015981989 
 1957000   0.71619701   -3.9471548    0.3571631   -2.6052208 -0.00018487177 
 1958000    1.1136894   -3.4439732    0.5440375   -1.3686128 0.00024077329 
 1959000   0.78989941   -3.3526849   0.68263958   -1.5839336 -5.051891e-05 
 1960000    1.3698723   -3.5295179   0.42923186   -1.2167116 -0.00010763989 
 1961000    1.4240862   -3.9450009   0.24509441   -1.7417879 -9.6019493e-05 
 1962000   0.96414593   -3.9297968   0.93289731   -1.6711989 -0.00010495314 
 1963000    1.0945711   -3.3719373   0.50974908   -1.3571529 0.00044041362 
 1964000    1.2608071   -3.5797063   0.47045732   -1.3756392 -0.00017230116 
 1965000    1.2564669   -3.8855032   0.28731208   -1.8705491 -4.8339572e-05 
 1966000   0.58174199   -4.3403394   0.34542666   -3.1950175 5.4181245e-05 
 1967000   0.69919978     -3.61003   0.58524005   -2.0633902 8.1301606e-05 
 1968000    1.1831878   -4.0231257   0.69053742   -1.7057051 -2.1779483e-05 
 1969000    1.1954883   -4.0295441   0.65133962   -1.7344081 0.00017954411 
 1970000     0.710349      -4.2914   0.68334392   -2.6313262 -0.00020786871 
 1971000    1.0928419   -3.9397261   0.61313355    -1.823935 -8.7926336e-05 
 1972000   0.76291929   -3.9581792   0.36675398   -2.5424112 -0.00019235955 
 1973000   0.58176167   -3.9807516   0.60842238   -2.5724069 2.7623851e-05 
 1974000     1.365127   -4.2197499   0.45143513   -1.8912652 0.00036087112 
 1975000   0.56966018   -3.8506621     0.408409   -2.6589704 -0.00028917183 
 1976000    1.1053527   -3.7597317   0.39185577   -1.8480159 -6.1437212e-05 
 1977000   0.62518224   -3.7302754   0.67620118   -2.1944486 0.0001835649 
 1978000    1.4949861   -3.5363364   0.44722508   -1.0335054 9.298212e-05 
 1979000    0.9597314   -3.7640646   0.34401189    -2.100422 5.5338788e-06 
 1980000   0.90838667   -3.6987197   0.64951253   -1.8001755 0.00016042035 
 1981000    0.9650756   -3.9016028   0.48779625   -2.0868276 0.00022685343 
 1982000    1.5648288   -3.5285283   0.49745688  -0.87943189 -3.2898458e-05 
 1983000    1.0815389   -3.9346702   0.78311513   -1.6644391 0.00016703297 
 1984000    1.3751763   -3.7625511   0.98281518  -0.88886854 -0.00017967788 
 1985000   0.89849986   -4.0491581   0.53129297   -2.2824278 -0.00037185792 
 1986000    1.6365828   -3.6469325   0.66899239  -0.72763869 4.3698441e-05 
 1987000   0.85398637   -4.1220159   0.29818129   -2.6496034 -0.0001808059 
 1988000   0.84906854   -4.0561726   0.69899695   -2.1897064 -1.5136372e-05 
 1989000    1.3175613   -3.9402809   0.55529591   -1.5733382 -0.00034723947 
 1990000    1.7829891   -3.5634947   0.52059823  -0.59128645 0.00016416908 
 1991000   0.57605946   -3.6471516   0.58259306   -2.2724767 0.0002638625 
 1992000   0.69523147    -3.048488   0.62573176   -1.4668129 -7.6456772e-05 
 1993000    1.0750098   -3.8644787   0.44325413    -1.943086 9.0942628e-05 
 1994000    0.7643518    -4.196262   0.53593535   -2.6093429 -0.00017260971 
 1995000    1.2188609   -3.6845736   0.92708304   -1.0815568 -0.00018272024 
 1996000    1.0883017   -3.7692068   0.63399991    -1.638792 -2.6013951e-05 
 1997000     1.439894   -4.1386921   0.60119144   -1.5576464 -2.450761e-05 
 1998000    1.1489994   -4.0439798   0.80744531   -1.6566602 -0.00022082417 
 1999000   0.80779978   -3.4735816   0.38093656   -1.9819203 4.6383526e-05 
 2000000   0.71831755   -3.8223199   0.61744237   -2.2171909 -0.00030532119 
 2001000   0.80045467   -3.3423895   0.38445258   -1.8573118 0.00028838693 
 2002000    1.2152272   -2.8167116   0.67745208  -0.46832215 -7.3723244e-05 
 2003000    1.0485818   -3.9873787   0.42834574    -2.117233 2.5014323e-05 
 2004000    1.0329138   -3.4094483   0.56625601   -1.4229359 0.00031509876 
 2005000   0.67940099   -4.3755273    0.4291779    -3.012173 0.00024963754 
 2006000    1.3182404   -3.7809417   0.55545729   -1.4129039 2.0006032e-06 
 2007000     1.242496   -3.7404814   0.32347971   -1.7085697 7.4370254e-05 
 2008000    1.1390691   -4.3956005    0.8868132   -1.9425672 -0.00027141229 
 2009000    1.0120513   -3.6421301   0.36396848   -1.8865911 8.551059e-05 
 2010000    1.1348009   -3.9737271   0.19341159   -2.2199642 -0.00022779502 
 2011000   0.58461414   -3.7658477   0.32094438   -2.6410589  0.000368382 
 2012000    1.4968049   -3.8010865   0.28429049   -1.4586892 0.00044585309 
 2013000   0.60269156   -3.8300667   0.48213063   -2.5192352 -0.00016873295 
 2014000    1.1453589   -4.2875643   0.61415776   -2.0985381 -4.3357417e-05 
 2015000   0.86538407   -3.9350678   0.67076119   -2.0744036 0.00011536617 
 2016000    1.1789943   -3.9400774   0.58316545   -1.7357948 -3.8711195e-05 
 2017000    1.0802477   -4.2558465   0.68596289   -2.0845429 0.00030930439 
 2018000    1.0699551   -3.9786604   0.47485036   -2.0326218 -0.00016778843 
 2019000   0.79778757   -3.1754432   0.22759171   -1.8508936 0.00025865636 
 2020000   0.90171907   -2.7957713   0.34726187   -1.2086458 0.00015813093 
 2021000   0.99095485   -3.8238945   0.20622484   -2.2551067 -0.00016009228 
 2022000    1.1262597   -3.9130647   0.45698208   -1.9074756 0.00029274413 
 2023000     1.181092   -4.0334544    0.7492846   -1.6601682 1.9526145e-06 
 2024000     1.063628   -3.4280849   0.11447074   -1.8511256  0.000475671 
 2025000   0.82784414   -4.2780508   0.71636039   -2.4234048 -0.00049882655 
 2026000   0.95712523   -3.9601674   0.52366143   -2.1204588 0.00017285833 
 2027000   0.70563541   -4.0035995   0.65851287   -2.3748379 0.00025154981 
 2028000   0.63478083   -2.7660503   0.40374257   -1.4894841 -0.00023379028 
 2029000    1.0587067   -3.8755191   0.26080147    -2.158996 0.00010348447 
 2030000   0.83821205   -4.0146198   0.47327387   -2.3888044 0.00014522601 
 2031000    1.1076005   -3.7843462   0.31516079   -1.9462347 -6.735251e-05 
 2032000   0.93292833   -3.2210905   0.51242258   -1.4258915 -4.8622998e-05 
 2033000    1.0863871    -4.357959   0.38807237   -2.4761044 8.7036101e-06 
 2034000    1.3471934   -4.3285478   0.77765929   -1.6984976 -0.00016363355 
 2035000   0.44217539   -3.6175854   0.57729678   -2.4322975 -0.00025447571 
 2036000   0.75925995   -3.1761661   0.45777886   -1.6744048 1.626533e-05 
 2037000   0.68336558   -3.5924582   0.50715142   -2.1456791 0.00036160263 
 2038000    1.1759418   -3.6750646   0.79132508   -1.2668195 -4.8102595e-05 
 2039000    1.2986652   -3.7770689   0.51774779   -1.4736565 -6.3810532e-05 
 2040000   0.91365843   -3.5911872   0.21003098   -2.1248759 0.00036928331 
 2041000    0.8085149    -3.012453   0.61383748   -1.2869075 -0.00031458224 
 2042000   0.85593538   -4.0621109   0.70656755   -2.1786322 -0.00030627189 
 2043000    1.2891588   -3.6621339    0.7997654   -1.0897752 -0.00045883768 
 2044000   0.77232135   -3.0703347   0.28423744   -1.7241553 0.00079464317 
 2045000    1.4668459   -4.1453706    0.2978609   -1.8305965 0.00035985741 
 2046000    1.2389372   -3.9145769   0.19124963   -2.0197887 0.00024316898 
 2047000     1.318154   -3.9497569   0.61732368   -1.5199714 4.0121188e-05 
 2048000    0.7346121   -3.1748947   0.42395486   -1.7408482 -0.00033164375 
 2049000   0.77381597   -3.1741139   0.49427595    -1.615841 -9.7254763e-05 
 2050000    1.0327961   -4.3188964   0.72045889   -2.1783429  1.62414e-05 
 2051000    1.3326525   -3.9424697   0.41222208   -1.6978505 0.00025382822 
 2052000   0.53758506   -3.7158786    1.1940253   -1.7826739 -9.9837071e-05 
 2053000   0.84013442   -3.9246527   0.55054386   -2.2189241 -0.00031385161 
 2054000   0.90805603   -4.0999892   0.81215453   -2.0392576 -8.0901599e-05 
 2055000   0.71660344   -3.7455542   0.85031257   -1.9099119 0.00012693419 
 2056000    1.0222214   -3.5826559   0.28257175   -1.8945297 3.6733506e-05 
 2057000    1.0551981   -3.6784455    1.0007385   -1.2268097 0.00011342839 
 2058000    1.0210347   -3.8416674   0.49754797   -1.9401967 0.00024413917 
 2059000   0.83541745   -3.7026563    0.3061422   -2.2478151 0.00064565648 
 2060000   0.97244109   -3.3807053   0.23165997   -1.8119389 0.00012034748 
 2061000   0.67538819   -3.4421881   0.27436389   -2.2391654 0.0003737372 
 2062000    1.3323031   -3.6866686   0.41370785   -1.4410439 1.4469164e-05 
 2063000    1.1976589   -3.8142214   0.17598833   -1.9914522 0.00032808481 
 2064000   0.81430592   -3.7340804   0.23118546   -2.3832243 6.6803085e-05 
 2065000    1.0395728    -3.906684   0.67994506   -1.7973264 -5.7070466e-06 
 2066000    1.1532976   -2.8608252   0.35799055  -0.91705039 -0.00021792353 
 2067000     1.007661   -2.9142537   0.33733459   -1.1913852 9.7976054e-05 
 2068000    1.1596926   -4.2040237   0.63684474   -1.9726016 8.0079984e-05 
 2069000     1.064278   -3.5166329    0.6169927    -1.436258 -0.00024179991 
 2070000   0.58700244   -4.2769946   0.26458504   -3.2052812 0.00012536071 
 2071000   0.86384387   -3.4918487   0.51064439    -1.793419 0.00018924165 
 2072000   0.78603568   -4.2364255    1.1715197   -1.9841067 -0.00036048883 
 2073000   0.85126543   -3.6259279   0.58114444   -1.8742935 0.00029063961 
 2074000   0.96710465   -4.2334262   0.67932472   -2.2243326 -0.00022084977 
 2075000    1.3143034   -4.2281546   0.31917444    -2.101813 -8.7419265e-05 
 2076000    1.2786471   -2.8996052   0.53360044  -0.60786499 -9.8533435e-05 
 2077000    1.0516854    -4.309669   0.68640622   -2.1771954 0.00014516098 
 2078000    1.0538659   -3.7136569   0.69647918   -1.5681121 8.8577658e-05 
 2079000    1.4249331   -3.5093416   0.47908362   -1.0709749 -0.0001584553 
 2080000    1.2907328   -3.6739379   0.44355088   -1.4556294 2.5901347e-05 
 2081000   0.82811014   -4.2998811   0.83876118   -2.3224684 -0.00012888157 
 2082000    1.0994289   -4.1660222   0.66100147    -1.993306 -0.00038134612 
 2083000   0.71039664   -4.2789738    0.5822335   -2.7199449 -7.9782421e-05 
 2084000    1.3902608   -4.0147378   0.30879534   -1.7943339 3.1743361e-05 
 2085000    1.1827375   -4.0180878   0.41040747   -1.9814163 0.00036230093 
 2086000    1.2631568    -4.201138   0.43811594   -2.0261815 0.00024572208 
 2087000   0.63560625    -3.233127   0.78624243   -1.5729259 -6.0412258e-06 
 2088000    1.1638288   -3.3892154    1.0291721  -0.75977876 -0.00023052317 
 2089000    1.2568693   -3.7178788   0.33947181   -1.6502117 -8.4215107e-05 
 2090000    1.1754281   -3.0624386   0.62160369  -0.82462132 -1.4626271e-05 
 2091000    1.1073351   -3.5217706   0.37986706   -1.6193178 0.00029730909 
 2092000   0.91947905   -4.0940928   0.44822056   -2.3815885 -3.2940039e-05 
 2093000    1.2412517   -3.5910233   0.51341883   -1.3708834 -0.00018515657 
 2094000   0.88157383   -4.1458288   0.61101327   -2.3226515 -0.00025369113 
 2095000    1.0199925   -4.0434788   0.36536666   -2.2756224 -4.3105292e-05 
 2096000   0.87340118   -3.4489535   0.66770684   -1.5803201 0.00015024812 
 2097000   0.95958064   -3.8415461    0.7654406   -1.7566821 6.6152052e-05 
 2098000   0.71020403   -3.0143698   0.44118475   -1.5966545 0.00023598765 
 2099000   0.93126863   -3.9162526   0.49113953   -2.1446187 7.2865124e-05 
 2100000     1.299309   -3.2439849    0.8544846  -0.60295046 0.00036106894 
 2101000   0.92196782   -4.2508409   0.32113561   -2.6619996 -0.00013744817 
 2102000    1.1772753   -3.9901158   0.67570111   -1.6956612 -0.00027340154 
 2103000   0.67550232   -3.8158102   0.46630127   -2.4206933 0.00055676407 
 2104000    0.9886764   -3.2270892    0.5802239   -1.2874353 0.00048930108 
 2105000   0.69965606   -3.5678316   0.32206763   -2.2837369 -0.00025124734 
 2106000    1.4108678    -3.904397   0.17000385   -1.7944499 0.00040649278 
 2107000    1.1699681   -3.8216627   0.49766944    -1.715287 0.0002670697 
 2108000   0.64343075   -4.3506006   0.81867337     -2.64721 -0.00045094716 
 2109000   0.93829853   -4.3445309   0.49276821   -2.5616022 -8.3511859e-05 
 2110000    1.2183053   -4.0903542   0.79015178   -1.6250326 -0.00041189676 
 2111000   0.94458895   -3.4059013   0.39265205   -1.7144394 3.1715859e-05 
 2112000   0.94278605   -3.7534455    0.2392599   -2.2178548 -0.00027824431 
 2113000   0.90470691   -3.7368372   0.61878387   -1.8740813 0.00043046394 
 2114000    1.2400291   -3.9002619   0.34802088    -1.847201 3.2127639e-05 
 2115000    1.2549215   -3.6104903   0.51910165   -1.3658715 0.00011190748 
 2116000   0.55431676   -4.1560922   0.81543457    -2.578472 -0.00010658053 
 2117000   0.91590377   -3.5254888   0.39084496   -1.8752761 0.00059314421 
 2118000    1.5728449   -3.9380813   0.32067631   -1.4547433 -0.00026078414 
 2119000   0.83951942   -3.6519033   0.64349139   -1.8540727 -2.8773591e-05 
 2120000    1.2348095   -4.1570099   0.15390921   -2.3052377 -5.2382201e-05 
 2121000    1.1850349   -3.5077722   0.34846554   -1.5298837 -0.00010066383 
 2122000    1.0279049   -3.7636842   0.25056756   -2.0997474 0.00026559874 
 2123000   0.87957477   -3.8980764   0.46735107   -2.2213101 0.00018434449 
 2124000    1.0597131   -3.9128275   0.64470238   -1.8110196 -0.00022401686 
 2125000    0.6020542   -4.4483643    0.5045108    -3.116029 -8.0572262e-05 
 2126000    1.1887594   -3.7378967   0.41912597   -1.6842265 0.00023506238 
 2127000   0.83743678   -4.0115001   0.35853947   -2.5014851 -1.4671468e-05 
 2128000   0.92306462   -3.9284156   0.40081524   -2.2583865 3.4096808e-05 
 2129000    1.1714209   -3.5982766   0.38103402   -1.6065389 0.00033070877 
 2130000    1.2366449   -4.0475601   0.35550217   -1.9916712 -0.00019869047 
 2131000   0.69994264   -3.9687819   0.31617142   -2.6901893 0.00025069683 
 2132000   0.98072832   -3.7505291   0.56182634   -1.8402014 0.0001196774 
 2133000    1.0833024   -4.0766449   0.35643751   -2.2306666 -5.0305247e-05 
 2134000   0.67770668   -3.6676582   0.76355276   -1.9722588 -8.0075331e-05 
 2135000    1.0710988   -4.5430054   0.58678392   -2.4834606 -0.00024093769 
 2136000    1.3656523   -3.8432777   0.29261966   -1.6728862 0.00013377235 
 2137000   0.95473425   -2.8137087   0.44133385   -1.0596153 0.00017183663 
 2138000    1.1787571   -4.0446678   0.50155558   -1.9223212 -0.00014548203 
 2139000    1.0128152    -3.285921   0.63098637   -1.2623138 1.8102617e-05 
 2140000   0.83416076   -2.7431934   0.22660343   -1.3696189 0.00043301507 
 2141000    1.6214631    -3.264955   0.66643466  -0.36900856 -8.9779735e-05 
 2142000    1.0469495   -3.7965714   0.39166358   -1.9653522 0.00025551632 
 2143000    0.9455601    -4.335082   0.38343209   -2.6515048 2.4768891e-05 
 2144000    1.0390684   -3.7844298   0.84573138   -1.5099794 5.0494792e-05 
 2145000    1.0098714   -3.8330173   0.70566775   -1.7387764 0.0001312037 
 2146000   0.69653067   -3.5404043   0.61175166   -1.9709229 -0.00021102506 
 2147000    1.3232347   -3.2699931   0.20087157   -1.2496738 1.1317216e-05 
 2148000   0.79095234   -3.6981211   0.31613888   -2.2944227 0.00021221417 
 2149000   0.76063271    -4.064596   0.45809565   -2.5606304 -0.00016699905 
 2150000     1.074398   -3.7276934   0.62523859   -1.6251575 0.00017710791 
 2151000   0.90027924   -4.1133459   0.69399441   -2.1814675 -0.00030569451 
 2152000   0.97687792   -3.1540079   0.77208295   -1.0387178 0.00045751209 
 2153000   0.81142651   -4.3383596    0.3387224   -2.8839257 0.00013841649 
 2154000    1.3319143    -2.789483   0.29091932  -0.66718156 -0.00013097458 
 2155000   0.93233537   -4.2055572   0.59985132   -2.3237448 -0.00011103303 
 2156000   0.84864522   -4.0660195   0.50367069   -2.3954617 -0.00015649104 
 2157000   0.79423175   -3.3547066    0.6980359    -1.564602 0.00012179835 
 2158000   0.51821921   -4.1971873   0.56368724   -2.9209486 8.4609719e-05 
 2159000   0.68056915   -3.7232013   0.54223241   -2.2451863 9.0144425e-05 
 2160000   0.66399485   -3.8794564   0.57111711   -2.3953463 0.00024907833 
 2161000   0.96616771    -3.924848   0.28748299   -2.3088844 0.00010063367 
 2162000    1.2993734   -4.0625356    0.2019511    -2.073946 3.7030686e-05 
 2163000   0.63501374    -4.084634    0.2349588   -2.9765313 0.00012798661 
 2164000    1.4581427   -4.3761856   0.53662397   -1.8346154 -2.1076602e-05 
 2165000   0.99807471   -3.8071262   0.50289936   -1.9318741 7.7298727e-07 
 2166000    1.2359573   -3.4764766   0.42736245   -1.3496728 5.6972321e-05 
 2167000    1.1029262   -3.7085462   0.26127929   -1.9307434 0.00041439185 
 2168000    1.2597111   -3.5653561   0.37309548   -1.4601579 2.2726284e-05 
 2169000   0.78937095   -3.9510429   0.55324919   -2.3124087 0.00039344924 
 2170000   0.99486262      -3.7795   0.51427781   -1.8972861 0.00025957255 
 2171000    1.1186946   -3.7731844     0.358873   -1.8761064 -0.00012291633 
 2172000   0.93959564   -4.2096099   0.73546099   -2.1822049 -0.0002146511 
 2173000   0.80070244   -3.7738176   0.53254009   -2.1403117 -0.00010466066 
 2174000    1.0138615    -4.075149    0.4044148   -2.2766747 0.00050554967 
 2175000   0.89481707   -3.5583722   0.47902704   -1.8489717 0.00017899258 
 2176000   0.68913688   -4.2093401   0.29727979   -2.9644971 1.7255179e-05 
 2177000    1.0480824   -3.7204374   0.60830121   -1.6710229 0.00020600335 
 2178000    1.0066503   -3.8516977   0.33236674   -2.1351868 0.0002366464 
 2179000   0.72307704   -4.1042712    0.4605003     -2.64954 0.00015629651 
 2180000    1.1326585   -4.0643289   0.38515871   -2.1217648 -7.4761488e-05 
 2181000   0.60881989   -4.0619716   0.26488675   -2.9599575 0.00019882142 
 2182000    1.0370265   -4.2720607   0.69355909   -2.1525901 -0.00027006345 
 2183000    1.0499201    -3.627984   0.28956132   -1.8947826 -3.2806855e-05 
 2184000    0.8979964   -4.3952474   0.92128499   -2.2392174 -8.1313555e-05 
 2185000    1.2999957   -2.7657645   0.36596378  -0.61230656 0.00052347147 
 2186000   0.99436996   -4.0623754    0.7781706   -1.9169461 -9.0936362e-05 
 2187000    1.2891571   -3.7354845   0.58553416   -1.3773593 0.0001634647 
 2188000   0.68856096   -3.8434074   0.36558366   -2.5310524 -0.00041442761 
 2189000   0.79413829   -3.9203096   0.44408672   -2.3842827 0.0001586346 
 2190000   0.75374006   -3.9106932   0.94715127   -1.9271494 7.5590791e-05 
 2191000    1.0172037   -3.5745194   0.28353769   -1.8923265 0.00015872085 
 2192000    1.0018654   -4.0544854   0.20354128   -2.4733792 0.00022153887 
 2193000   0.90348383   -4.1278554   0.43708414    -2.448481 -0.00015600677 
 2194000    1.0224417   -4.0115964   0.23347503    -2.372264 -4.5180717e-05 
 2195000     1.241768   -3.4844824   0.42138552    -1.355666 -0.00029279647 
 2196000   0.98119756   -3.3971348   0.42526117    -1.622727 -0.0002599194 
 2197000   0.77121788   -3.6429082   0.26912421   -2.3133594 0.00020833807 
 2198000    1.2295782   -3.9200698   0.35721374   -1.8721861 6.7209547e-05 
 2199000   0.69130152   -3.8444849   0.62062626   -2.2733191 -0.00012306769 
 2200000   0.96598089   -3.4225701    0.9791102   -1.1152361 -0.00042381003 
 2201000    1.3311581   -3.9028147   0.64612687   -1.4263453 0.00013223277 
 2202000    0.6347118   -3.2575089   0.44365446   -1.9411257 -2.5971711e-05 
 2203000    1.0279164   -3.9028857   0.52972638   -1.9597743 -4.9408046e-05 
 2204000   0.76021679   -4.2027035   0.45822682   -2.6991786 0.00025548218 
 2205000   0.82977151   -3.5041124    0.2922915   -2.0708851 0.00025467164 
 2206000    1.1055205   -3.7123989     0.304103   -1.8882052 0.00022865349 
 2207000    1.1249828   -4.0575351   0.66597977    -1.844704 -0.00031512846 
 2208000   0.84210368   -4.0773339   0.29368309   -2.6257582 0.00013609543 
 2209000   0.92879675   -3.4396346   0.75785548   -1.4046836 -0.00020102401 
 2210000   0.57276644    -4.072873   0.52355346   -2.7617657 -0.00021909943 
 2211000   0.84246478   -3.5069656   0.38667688   -1.9618996 -0.00025703922 
 2212000    1.2500045   -3.4681453   0.49665248   -1.2527367 0.0007620172 
 2213000    1.7275241   -4.1283746   0.74526505   -1.0077638 0.00024605678 
 2214000   0.98651923   -3.3621533   0.33777242   -1.6679169 -0.00029670006 
 2215000    1.1315573   -3.4800129    0.4739964   -1.4501252 -0.00022343344 
 2216000   0.84257281   -3.8343878    0.2649959   -2.4108543 -0.00034252224 
 2217000    1.3575753   -3.6990587   0.66380522   -1.1685874 -9.4266616e-06 
 2218000   0.84093199   -3.4133185   0.29021623   -1.9668208 0.00040556338 
 2219000    1.5629259   -3.6822039   0.66270749  -0.87047332 0.00023878228 
 2220000   0.86071922   -4.2564648   0.82582219   -2.2471537 -0.00024503302 
 2221000    1.0088137   -3.3923515   0.59430844   -1.4109242 -6.3624814e-05 
 2222000   0.54207034   -3.9463857   0.45803259   -2.7430064 0.00026495056 
 2223000    1.4378409   -4.0663431   0.75567668   -1.3336351 0.00011299922 
 2224000    1.2878439   -3.8480578   0.89897016   -1.1783022 -0.00036618556 
 2225000    1.1539797   -4.2451049     0.359033   -2.2993499 1.1794867e-05 
 2226000   0.94385003    -4.185133   0.74261353   -2.1447257 -0.00022244462 
 2227000    1.3802246   -3.6534484   0.39713795   -1.3585015 -5.5659263e-05 
 2228000    1.0396712   -4.1319567   0.43013576    -2.272273 -0.00020001717 
 2229000   0.63633947   -4.1586843    1.0141274   -2.2695901 0.00025112112 
 2230000    1.0226197    -3.838367   0.51774505   -1.9145199 0.00015865464 
 2231000   0.68295627   -4.4455413    0.4828475   -3.0236289 2.9806746e-05 
 2232000    1.2333934    -3.798586  0.089642233   -2.0130278 0.00024602422 
 2233000   0.66113834   -3.8333033   0.46658949   -2.4576486 -0.00044443145 
 2234000   0.71090241   -3.7574471   0.17522372   -2.6047326 -0.00017034698 
 2235000    1.0748998   -4.3763521   0.45528518   -2.4430797 -0.00011844763 
 2236000    1.0616521   -3.4945223    0.3711137   -1.6636369 0.0005408954 
 2237000   0.83818059   -4.1241316    0.7445916   -2.2270417 -0.00031200116 
 2238000    0.7720804   -4.1676725   0.16153649   -2.9445255 -0.00010583713 
 2239000    1.4294255    -4.311845    0.2839565   -2.0624284 -9.4971378e-05 
 2240000   0.95954116   -4.1180463   0.36116478   -2.4375125 5.2958212e-05 
 2241000     1.057961   -3.9716312   0.65230366   -1.8646312 0.00014139758 
 2242000    1.4812115    -4.263489   0.38054467   -1.8462786 0.00023077428 
 2243000    1.2127743   -4.2553489   0.54501967   -2.0427645 -1.4955969e-05 
 2244000   0.81811784   -3.4722047   0.50690377   -1.8403889 -0.0001195985 
 2245000   0.81671305   -3.9158149   0.30562782   -2.4872067 5.9897838e-05 
 2246000   0.68025617   -3.7993985   0.33871804   -2.5253283 6.9736771e-05 
 2247000    1.6478165   -3.8620437   0.48581232   -1.1104837 0.0001661046 
 2248000    1.2158916   -4.0013849   0.47424158   -1.8552924 -0.00014137864 
 2249000   0.78598272   -4.0343763   0.38233848   -2.5713116 0.00024493481 
 2250000   0.94957015   -4.2216884   0.76746048    -2.148569 -0.00045509682 
 2251000    1.0054834   -3.8612329   0.45572791   -2.0229653 -0.00010805595 
 2252000     1.180661   -3.6977261   0.52318202   -1.5511352 -0.00036785487 
 2253000    1.4412984   -4.3436431   0.19391277   -2.1679451 -3.4716462e-05 
 2254000   0.96335886   -3.6121274   0.36791109   -1.9195979 -0.00026951093 
 2255000   0.62871493   -4.2869485   0.32359921   -3.0988662 3.6431687e-05 
 2256000    1.3474667   -3.9952558   0.31726327   -1.8252258 -5.7821096e-05 
 2257000    1.0514659   -4.0470425    0.3740067   -2.2272702 -0.00045273004 
 2258000   0.84484346   -4.2435467   0.58344803    -2.498439 -0.00031236178 
 2259000   0.82117123   -4.0523191   0.62774346   -2.2954652 -0.00016817867 
 2260000    1.2910906   -3.3896174    1.0091099   -0.6052579 -0.00053644812 
 2261000    0.6496998   -4.1578702   0.56994121   -2.6945917 -0.00016465031 
 2262000    1.5020939   -4.1985099   0.25166323   -1.8814676 0.00018708259 
 2263000    1.2209797   -3.5831823    0.5989308   -1.3054044 0.00014361026 
 2264000    1.4435758    -4.330328   0.73242173   -1.6129895 -0.00036020015 
 2265000    1.1107982    -3.431445   0.56316337   -1.3409341 -8.2955538e-06 
 2266000   0.79256666   -4.0449953   0.42221194   -2.5330042 5.6308976e-05 
 2267000   0.93695779   -4.3212878   0.43513912   -2.5978318 0.00025850794 
 2268000    1.1096301   -4.0057308   0.53517898   -1.9448104 0.00026110014 
 2269000   0.69855357   -4.1705346   0.51162342   -2.6984001 -0.00030416852 
 2270000    1.0839114   -3.7173146   0.73934448    -1.487592 -0.00038837613 
 2271000    0.9464507   -4.1125165   0.50287098   -2.3082759 -0.00032239216 
 2272000    1.0723248   -3.6821521   0.48101544   -1.7266901 -0.00036614402 
 2273000   0.77326445   -3.7176413   0.36288228   -2.2915204 2.0162462e-05 
 2274000   0.98549169     -4.50651   0.30103756   -2.8504213 0.00014831645 
 2275000   0.80965916   -4.0539952   0.65026241   -2.2904515 -0.00045126254 
 2276000   0.76057915   -3.6405187    0.4701843   -2.1245381 -0.00012748042 
 2277000    1.0419274   -4.2481988   0.21310474    -2.602444 0.00014203988 
 2278000   0.84901739   -3.6575347   0.47292819   -2.0172076 1.3873434e-05 
 2279000    1.6985111   -3.8536543   0.48484065   -1.0333609 0.00017797927 
 2280000    1.4644007   -3.9796799   0.36989897     -1.59623 -8.9259542e-05 
 2281000   0.83876323   -3.9039599   0.35077131   -2.3998891 0.00013009622 
 2282000   0.75522074   -4.1123819   0.65313615   -2.4208172 -0.00023845277 
 2283000   0.55439206   -3.9002585   0.45215049   -2.6858189 8.5513267e-05 
 2284000    1.5907373   -3.5518035   0.48085105  -0.88368861 5.4261665e-05 
 2285000   0.87528567   -4.0022551   0.32321948   -2.4755178 -1.5828674e-05 
 2286000    1.0717334   -4.2283769   0.47853496   -2.2762085 6.9747165e-06 
 2287000   0.90124057   -3.6337617   0.45242868   -1.9421273 7.5066765e-06 
 2288000    0.9596602   -4.3460531   0.38348079   -2.6430395 9.2471039e-05 
 2289000    1.1405265   -4.2708973     0.680893   -2.0217804 -0.00015980845 
 2290000   0.56879526   -4.1551349   0.50845298   -2.8645885 -4.076444e-05 
 2291000     1.307424   -4.0771786   0.24216896   -2.0373016 9.0441273e-06 
 2292000    1.1762795   -3.8672711    0.5803278    -1.669559 -8.3323086e-05 
 2293000    1.5115069   -3.6774756   0.35867344   -1.2404801 0.00014110616 
 2294000    1.0656118   -3.6867231   0.42802471   -1.7934821 -7.4776666e-05 
 2295000   0.90846274   -3.5200683   0.55798206     -1.71295 -0.00024918932 
 2296000   0.57541464   -3.8408827   0.51509685   -2.5345907 1.0645281e-05 
 2297000    0.7731707   -3.5999645   0.45505252   -2.0818023 7.8067729e-05 
 2298000   0.95206153   -3.5534626   0.35487926   -1.8894987 -7.7582067e-05 
 2299000    1.4486968   -3.5005655   0.48844213   -1.0201652 -0.00033416747 
 2300000    1.3590861   -4.2166584   0.41443095   -1.9334841 2.0504767e-05 
 2301000   0.92355766   -4.1883455   0.15757716   -2.7608765 -0.00012570146 
 2302000   0.96134832   -4.3530791   0.73882957   -2.2923956 -9.7235014e-05 
 2303000    1.1781059   -3.9600594   0.34001683   -2.0001469 0.00046823059 
 2304000   0.69347897   -4.2852097   0.44613151   -2.8855446 -0.00027663608 
 2305000    1.0744462   -3.9727153   0.24721752   -2.2481343 0.00016867142 
 2306000   0.63361273   -4.1413913   0.56291351   -2.7072603 0.00011728397 
 2307000    1.5725812    -4.220087    0.4637417   -1.5940461 0.00027343066 
 2308000   0.61359581    -3.691149   0.39177844   -2.4556764 -0.00028038193 
 2309000    1.3335319   -3.7335941   0.21444405   -1.6855437 0.00034984349 
 2310000   0.90517671   -3.9986979   0.34737127   -2.4067086 6.5670389e-06 
 2311000   0.81232131   -3.7982067   0.47255986   -2.2087051 -0.00014443682 
 2312000    1.2369008   -4.0353065   0.48976216   -1.8448058 -9.123541e-06 
 2313000   0.87418376   -3.9472022   0.80911833   -1.9360812 -0.00040206727 
 2314000    0.7979197    -4.170685   0.27165115   -2.8018942 0.00027245046 
 2315000   0.98094151   -4.2468531    1.0522917   -1.8457669 0.00017817551 
 2316000    1.5540675   -4.1222481   0.73174405   -1.2536612 0.00038298421 
 2317000    1.1978136   -3.8830895   0.53412163   -1.7019741 4.5537253e-05 
 2318000    1.0054794   -4.0765522   0.20491952   -2.4890985 -3.4353617e-05 
 2319000    1.1666229   -4.2535368   0.54722884   -2.1022015 0.00028497294 
 2320000   0.98733358   -3.7347536   0.85483931   -1.5223306 0.00012669773 
 2321000   0.90314454   -4.0759781   0.37427599   -2.4598783 2.6099123e-05 
 2322000    1.0401405   -3.9306638   0.56758948   -1.9328811 0.00020744284 
 2323000    1.0595086   -4.0525807   0.27005619   -2.3257002 -0.00015519728 
 2324000    1.0067009   -3.6650157   0.84949329   -1.4313086 -0.00011031212 
 2325000   0.61856843   -3.4473178    0.2888427   -2.3079435 0.00032140228 
 2326000    1.0395578   -4.1805342   0.55310773   -2.1980346 2.1442641e-05 
 2327000   0.99214363   -4.1050728   0.57640341   -2.1644719 2.8676861e-05 
 2328000    1.0342343   -3.6642357   0.41773981   -1.8244236 -0.00028625433 
 2329000   0.85661146   -4.5107726    1.0216811   -2.3112507 -9.4657578e-05 
 2330000   0.83381953   -3.6781227   0.45867284    -2.072948 -5.8931296e-05 
 2331000    1.0143626   -3.5727099   0.23359411   -1.9443672 0.00056572666 
 2332000   0.66856792   -4.4311273   0.28075472   -3.2310917 0.00010362545 
 2333000   0.81133336   -3.6184015    0.6174242   -1.8853939 0.00010578489 
 2334000    1.4266464   -4.1445047   0.22065696    -1.962209 0.00011928109 
 2335000   0.65382577   -3.7405871   0.41635422   -2.4252224 -0.00027739826 
 2336000   0.71634648   -3.2321094   0.49252239   -1.7546106 -0.00024486773 
 2337000    0.8267469   -3.9186254   0.27312566   -2.5087228 1.6083997e-06 
 2338000   0.73308645   -3.5950019    0.2364083   -2.3505997 0.00048034256 
 2339000    1.1153481   -3.5868478    0.5884069   -1.4648372 -7.705313e-05 
 2340000   0.65478825   -3.7069345   0.31841452   -2.4881861 -3.5415991e-05 
 2341000    1.4781605   -4.2257442   0.30826011   -1.8850134 0.0001128862 
 2342000   0.89687406   -3.9016019   0.32786852   -2.3405315 -0.00015378455 
 2343000   0.99867571   -4.0688652   0.48215001   -2.2135361 -4.1915781e-05 
 2344000    1.3020079   -3.9471683    1.2952912  -0.86161626 -5.8076635e-05 
 2345000   0.71960965   -3.7432016   0.13637109   -2.6173673 1.777818e-05 
 2346000    1.7301685   -3.8966435   0.64438091  -0.87328083 -7.4401655e-05 
 2347000    1.0254922   -4.0552144   0.70606896   -1.9390937 0.00013456131 
 2348000   0.55260125   -2.9505069   0.39327688   -1.7974033 7.3949751e-05 
 2349000   0.73365757    -2.897663   0.67292115   -1.2159627 2.8159738e-05 
 2350000    1.3412906   -3.8243582   0.34096355     -1.63912 0.00047912636 
 2351000     1.240292   -4.2324606   0.78029978   -1.7467593 -0.00038734666 
 2352000   0.92284253   -3.4601164   0.51986222   -1.6713457 -9.8457273e-05 
 2353000    1.1394706   -3.2664647   0.22430931   -1.4753833 0.00023910433 
 2354000    1.0816388   -3.9468485   0.55035069   -1.9092445 5.4046629e-05 
 2355000   0.87552696   -4.0720016    0.1611843   -2.7069677 4.4626191e-05 
 2356000   0.94389058   -4.0025244   0.56116203   -2.1435128 0.00022897351 
 2357000   0.97876019   -3.7860206   0.58045781   -1.8597675 -0.00040041989 
 2358000   0.75406415   -4.1908673   0.94043527   -2.2135938 -0.00017828018 
 2359000   0.91136996   -4.0669357   0.56540314   -2.2483989 0.00012851302 
 2360000    0.9458278   -3.9924906   0.55594582   -2.1360315 0.00020764942 
 2361000   0.79370681   -4.0075505   0.41322037   -2.5029832 -2.0569817e-05 
 2362000   0.88222641   -3.7883743   0.32274818   -2.2525648 0.00015251732 
 2363000   0.75630349   -4.0883404   0.60176559   -2.4466576 9.8059399e-05 
 2364000   0.81280599   -3.7308973   0.48449222   -2.1287968 -0.00029796414 
 2365000    1.0888847   -4.0691229   0.66005017   -1.9118562 -0.00015086903 
 2366000   0.85714112   -3.3991922   0.62240387   -1.5982193 0.00014967712 
 2367000   0.84102174   -3.7526235   0.30965779   -2.2865608 0.00040954505 
 2368000    1.0870606   -3.9864195   0.46710893   -2.0246022 -0.00012905585 
 2369000   0.81132332   -4.3008824   0.68125736   -2.5040555 -0.00034999201 
 2370000    1.1485191   -4.0288883   0.49651984   -1.9531548 -0.00030932349 
 2371000    1.0616599   -4.2599804   0.39152181   -2.4086762 0.00017773219 
 2372000    1.3587224   -4.0845142   0.68835506   -1.5279159 -0.00033425188 
 2373000    1.0234844   -3.9477236   0.42840086   -2.1120316 -5.3744577e-05 
 2374000   0.92928896   -3.9767499   0.56244307   -2.1365345 -4.7285799e-05 
 2375000    1.0334215    -3.611636   0.31401966   -1.8766617 0.00019566143 
 2376000    1.0383363    -3.614123   0.44015065   -1.7462598 -4.3292994e-05 
 2377000    1.2051237   -4.0001522   0.32934107   -2.0137661 0.00023925824 
 2378000    1.0011678    -4.061149   0.37728627    -2.307257 -7.4959664e-06 
 2379000    1.1286198   -3.8127745   0.61537608   -1.6455462 0.00049351431 
 2380000    0.8149925   -3.8614701   0.31535733    -2.425498 0.00010403154 
 2381000    1.0892264   -3.9591368    0.3036125    -2.157838 2.1132727e-06 
 2382000    1.1113989   -3.9307166   0.20670974   -2.1958335 -7.4083804e-05 
 2383000    1.2161597   -4.0155096   0.44381418   -1.8994759 -0.0001034278 
 2384000   0.80546276   -3.9716792   0.49139944   -2.3727684 -0.00016315309 
 2385000   0.72603558   -4.3395268   0.55243747   -2.7887904 -5.3849274e-05 
 2386000    1.0322119   -4.3822653   0.54067413   -2.4222999 -7.3354244e-05 
 2387000    1.0787667   -4.2577678    1.0927956    -1.681668 -0.00035846814 
 2388000   0.58528471    -4.333408   0.22914527   -3.2994963 0.0003476418 
 2389000    1.6544212   -4.0581121   0.36726621   -1.4160168 -5.6474349e-05 
 2390000    1.3592121   -3.8931989   0.22215644   -1.8021259 9.445211e-05 
 2391000   0.60274143   -4.3766976   0.43387885   -3.1140493 -3.0661649e-05 
 2392000   0.77092192   -3.8321402   0.25192444   -2.5201982 0.00029513697 
 2393000    1.0011273   -3.9166145   0.65949566   -1.8805688 -0.00030705721 
 2394000   0.89099142   -3.8291425   0.46304847   -2.1409808 -0.00027234666 
 2395000    1.1148226   -3.8433237   0.62710441   -1.6833383 0.00012020472 
 2396000   0.81681399   -4.1426123   0.23694466   -2.7825484 0.00012818239 
 2397000    1.0211305   -4.2937864   0.47798559   -2.4117464 4.6297731e-06 
 2398000    1.3960052   -3.9338413   0.64463322    -1.369701 -0.00034846313 
 2399000    1.0949307   -3.5986735   0.43753192   -1.6556118 0.0001063388 
 2400000    0.9545072   -3.9280995   0.64898911    -1.966663 -0.00046425338 
 2401000   0.75821357   -4.1020787    0.1952185   -2.8643166 0.00013309429 
 2402000    1.0709368   -3.4596356   0.49009301   -1.4970046 -0.00024189072 
 2403000   0.99486135   -4.1832499   0.47114042   -2.3441751 -1.2260943e-05 
 2404000    1.1470636   -4.3061326   0.67045462   -2.0584656 -0.00012168354 
 2405000    1.3421416   -3.7294713   0.34820439   -1.5358222 3.203669e-05 
 2406000   0.95767655   -4.3755376   0.25232817   -2.8064041 -6.7690105e-05 
 2407000   0.64796672    -4.309395   0.76369667    -2.654744 -0.00015360718 
 2408000    1.1466954   -3.6840791  0.099351639   -2.0080213 0.0002557143 
 2409000   0.67588286   -4.2492525   0.47236061   -2.8475529 -0.0003354647 
 2410000   0.89514691   -3.8888445   0.25454918   -2.4034684 0.00028198089 
 2411000    1.0418991   -4.2287092    0.3459379     -2.45016 -9.1912022e-05 
 2412000    1.1794726    -3.942575    0.1888423   -2.1319579 0.00019773889 
 2413000    1.3938759   -3.8468739   0.34504128   -1.5852533 0.00028672772 
 2414000   0.69057702   -4.2469773   0.24071206   -3.0567219 0.00018426313 
 2415000   0.81405343   -3.8102729   0.41523922   -2.2757102 -3.5333751e-05 
 2416000    1.0427334   -3.8110124   0.70993232   -1.6673216 -2.1639918e-05 
 2417000    1.1862995   -4.2441425   0.11682453   -2.4961562 0.00015906109 
 2418000   0.71341627   -4.2878434   0.42492635   -2.8819697 -0.00016973551 
 2419000   0.92575285   -4.2586107   0.57299031   -2.4127102 4.0639969e-05 
 2420000    1.1550844   -3.8795146   0.50312105   -1.7881525 -0.00042723029 
 2421000    1.3407359   -4.0237162     0.426941   -1.7532633 0.00023624926 
 2422000   0.90016756   -4.3459955   0.74543937   -2.3628257 0.00019721962 
 2423000    1.2084695   -3.8190291   0.52157822   -1.6358054 1.3963378e-05 
 2424000    1.3512184   -4.1835142   0.21229643   -2.1132925 0.00032845437 
 2425000    1.0955443    -4.417158   0.33066625   -2.5801183 -0.00019544947 
 2426000   0.99035515   -4.3039242   0.39145008   -2.5507358 -7.6328961e-06 
 2427000   0.97236209   -3.9023352   0.41062249   -2.1547148 -0.00027655877 
 2428000     1.082268   -4.2086816   0.22427147   -2.4962916 0.00016207431 
 2429000   0.79610941   -4.2804421   0.33392219   -2.8518695 -0.0001099403 
 2430000    1.0124448   -4.1247887   0.27338813    -2.459289 -3.114713e-05 
 2431000    1.2002392   -3.5546528   0.51630618   -1.3880177 4.6683405e-05 
 2432000    1.0573964   -3.9740149   0.51567402   -2.0044208 -6.1408864e-05 
 2433000    1.0969615   -4.5427197   0.33878086   -2.6956168 -0.00013343844 
 2434000    1.0353827   -4.5135596   0.36461264   -2.7252957 -1.0073677e-05 
 2435000    1.1014075   -4.3521672   0.44294541   -2.3947866 -0.00019373146 
 2436000    1.3920948    -4.189243   0.21639302   -2.0587197 1.8033374e-05 
 2437000   0.85816092   -4.2350989    0.4824603   -2.5726674 -9.930994e-05 
 2438000    1.7388368   -3.8128982   0.45021917  -0.97177845 -0.00010983922 
 2439000   0.87754579   -3.7791246   0.31261088   -2.2598882 -8.0528277e-05 
 2440000   0.97061976   -4.3536169   0.19621039   -2.8228043 -8.6582871e-05 
 2441000   0.96838933   -4.3142448   0.38740465   -2.5953048 -0.00018592056 
 2442000     1.348694   -4.2226262   0.24186527   -2.1263066 0.0001256463 
 2443000    1.2171943   -4.1790872    0.4720289   -2.0334161 0.00021114156 
 2444000   0.75508485   -4.2608245   0.48677878   -2.7358041 0.00013722218 
 2445000   0.85172158    -4.209704   0.29107329   -2.7475136 9.6123205e-05 
 2446000    0.7001386   -4.0590999   0.28850159   -2.8079078 7.1442415e-05 
 2447000    1.3703169    -4.282848   0.34753083   -2.0511314 -0.0001496488 
 2448000   0.80181036   -4.3167482   0.43710072   -2.7771582 0.00038118438 
 2449000   0.69028398   -4.3410765   0.37176125   -3.0201748 -0.00015764726 
 2450000   0.79575155   -4.1869958    0.6629625   -2.4298749 0.00031762236 
 2451000   0.95643923   -4.4230868   0.48119847   -2.6267844 0.00026262224 
 2452000    1.0762373   -4.3260324   0.43283285   -2.4133733 -2.0147987e-05 
 2453000   0.82845619   -4.1796243    0.3606622   -2.6798348 0.00022047684 
 2454000   0.58872139    -4.505393   0.24503559   -3.4508655 -0.00015923018 
 2455000   0.97219017   -3.7752277   0.45344986   -1.9850163 -0.00025718085 
 2456000    1.1680484   -3.8549675   0.20343285   -2.0454681 5.9356708e-05 
 2457000    1.1086106   -4.2033583   0.67842724   -2.0005915 0.00027486722 
 2458000    1.6980382   -4.2275954   0.33305041   -1.5597424 3.7801177e-05 
 2459000   0.84197319   -4.4990395   0.30461664   -3.0367097 -2.0910573e-05 
 2460000   0.74764117   -4.2289914   0.44809066   -2.7528941 -0.00019736783 
 2461000    1.2798112   -4.2475676   0.33356301   -2.1542642 -8.7617444e-05 
 2462000    1.2577258   -3.7258669   0.42589119   -1.5706027 -0.00028401234 
 2463000    1.0645598   -3.8846932   0.49679931   -1.9241242 0.00048417788 
 2464000    1.4041514   -4.3348947   0.33425422   -2.0699323 0.00012671384 
 2465000    1.1082254   -4.2744322   0.51021883   -2.2404035 -0.00043349684 
 2466000   0.91571889   -4.3630112   0.35708763   -2.7468101 1.7314031e-05 
 2467000    1.1526727   -4.2348746   0.18173615   -2.4682135 -1.0774694e-05 
 2468000    1.0107032    -4.171538   0.44542936   -2.3363917 -3.4173501e-05 
 2469000   0.97796507    -3.668203   0.38777449   -1.9357265 -0.00015301131 
 2470000     1.215074   -3.8527209   0.12896706    -2.053027  8.97241e-05 
 2471000   0.82559683   -3.7523669   0.16622652   -2.4509447 0.00025934249 
 2472000   0.90666155   -4.3608455   0.31861341   -2.7955725 0.00017084099 
 2473000    0.8032191   -4.4262915   0.37515943   -2.9467058 -0.0003590364 
 2474000    1.0334019   -4.3830479   0.38750279   -2.5746176 0.00014980164 
 2475000    1.4393794   -4.2574725   0.59408311   -1.6842428 -0.00017378043 
 2476000    1.1685115   -4.0342513   0.32599345   -2.1015545 8.990755e-05 
 2477000   0.62252488   -4.4895584   0.25313925   -3.3804474 -0.00015203937 
 2478000   0.99234114   -3.9400489   0.27339751   -2.3021823 0.00025892795 
 2479000    0.8956803   -4.1004304   0.35076163   -2.5181083 0.00056838928 
 2480000   0.60529181   -4.3396262   0.35124203    -3.156108 -6.2997511e-06 
 2481000    1.0384848   -4.0916921   0.22748217   -2.4362934 0.00026893819 
 2482000   0.89307915   -4.1505501   0.61593086   -2.3066354 -0.00035761683 
 2483000   0.86687362   -4.1744094   0.40371463   -2.5787435 -0.00015982995 
 2484000    1.1556546   -4.1699452   0.10064428   -2.4802759 0.0002578015 
 2485000    1.4862717   -4.4703791   0.55682947    -1.869926 -6.9948715e-05 
 2486000    1.4771378    -4.414745  0.057019535    -2.326661 -4.0895555e-05 
 2487000   0.74835907   -4.2503883   0.13170753   -3.0896871 1.7451079e-05 
 2488000   0.91910271   -4.5471589   0.32400739   -2.9593852 -0.00022862825 
 2489000   0.80091317    -4.301639   0.40748966   -2.7928938 0.00015847049 
 2490000   0.94037849   -3.9597756   0.28135522   -2.3853999 1.6994306e-05 
 2491000    1.1202842   -4.3135508   0.43578462   -2.3373753 -0.0002972893 
 2492000   0.86104585   -3.8682787   0.44738077   -2.2369599 -8.9328767e-05 
 2493000   0.69617996   -4.3448881   0.62530092   -2.7623398 2.3291277e-05 
 2494000   0.89163366   -4.3245067   0.49927125   -2.5992392 -4.1560718e-05 
 2495000    1.0269674   -4.1563238   0.38167091   -2.3625727 0.00035418152 
 2496000    1.0002332   -4.2749406   0.28921466   -2.6104053 0.00014024447 
 2497000   0.79280716   -4.0343473   0.27306698   -2.6711705 0.00013827318 
 2498000   0.75385908    -4.054199   0.33013208   -2.6875106 -0.0003457724 
 2499000   0.91645699   -3.7966289    0.2764277   -2.2600729 -5.852034e-05 
 2500000    0.6880749   -4.4578008   0.31150233   -3.2001955 0.00029791547 
 2501000    1.0681744   -4.3530323   0.17867214   -2.7056204 0.00013376667 
 2502000    1.0573525   -4.4871157   0.40376119   -2.6294948 -1.9267354e-05 
 2503000   0.65161562   -3.9761142   0.24912682   -2.8310159 -8.0283893e-05 
 2504000   0.77151919   -4.2961233   0.35479748   -2.8804869 0.00033125035 
 2505000   0.65130135   -4.1724572   0.26018835   -3.0167295 1.9709502e-05 
 2506000   0.83429417   -4.1737402   0.61511739   -2.4114684 1.1283117e-05 
 2507000    1.0199379   -4.3162359   0.19976506   -2.7140563 0.00014363664 
 2508000    0.9757239    -4.171684   0.35029602   -2.4797676 2.9743612e-05 
 2509000    0.9159798   -4.0707736  0.086151461   -2.7251499 0.0002961161 
 2510000     1.079553    -4.279407   0.55783408   -2.2371875 -4.8004246e-05 
 2511000   0.90172296   -3.6782085   0.28652368   -2.1518157 -0.00029812266 
 2512000   0.66354611   -3.6520716   0.34924864   -2.3904471 0.00018149183 
 2513000   0.93842405   -4.1863639   0.27795237   -2.6180785 -0.00012996821 
 2514000   0.89711614   -4.2521603   0.41281799   -2.6058076 0.0002033015 
 2515000    1.1626468   -3.6175173   0.29545264   -1.7234253 0.00049232586 
 2516000    1.0765635   -4.0898091   0.10599275   -2.5035415 0.00014801888 
 2517000   0.97710378   -4.4574848   0.16692826   -2.9470388 -0.00013573246 
 2518000   0.87982501   -3.9329325   0.72385955   -1.9993136 -0.00029506148 
 2519000   0.70115613    -3.941604   0.19329453   -2.7842198 -9.9756353e-05 
 2520000   0.97845472   -4.3481184   0.75782062   -2.2449225 -1.6291667e-05 
 2521000    1.1092389   -3.7586578   0.46506481   -1.7683895 0.00043041551 
 2522000   0.77380324   -3.6663385   0.27499987   -2.3273592 0.00046451254 
 2523000    1.0219934   -4.3345334   0.28451329   -2.6447792 0.0002919258 
 2524000   0.90849899   -4.0233834  0.053725004   -2.7204723 4.8280836e-05 
 2525000   0.81314533   -4.4388354   0.60960763   -2.7111529 2.824894e-05 
 2526000   0.80680381   -4.2337914   0.54311304   -2.5813231 4.4808755e-05 
 2527000    0.7449054   -3.6357199   0.32826718   -2.2832078 -0.00031472701 
 2528000    1.1971238   -4.0635412   0.91072874   -1.5067673 -0.00027594373 
 2529000    1.3175262   -4.2992648   0.84970805   -1.6379582 -0.00016692318 
 2530000   0.66136444   -3.8062727   0.40764819   -2.4892484 0.00015127967 
 2531000     1.104626   -4.4718768    0.2495531   -2.7034629 -0.00014160372 
 2532000    1.2483202   -4.1931229   0.28155376   -2.1951288 -2.2352802e-05 
 2533000   0.86316213     -4.14587   0.28594244   -2.6730796 0.00016271741 
 2534000    1.0189981   -3.5265667   0.25907019   -1.8663742 3.0227401e-05 
 2535000   0.78824819   -4.2350071   0.28174266   -2.8694232 0.00022963273 
 2536000    0.8602746   -3.3768149   0.24874694   -1.9451904 -1.5083382e-05 
 2537000   0.99389941   -4.2238402   0.45532486   -2.4019037 -3.227911e-05 
 2538000   0.72963076   -4.4112162   0.66033888    -2.747635 -5.7141436e-05 
 2539000    1.4371038   -4.1605906   0.35965072   -1.8249221 8.636488e-05 
 2540000    1.0459679   -3.8778243   0.50310497   -1.9365135 0.00053120988 
 2541000   0.66547163   -3.8847839   0.35551651   -2.6142439 -0.00015146636 
 2542000   0.78658319   -3.8268785   0.30522419   -2.4401025 0.00014462367 
 2543000    1.2235536    -4.115769     0.814967   -1.6184158 -0.0001408498 
 2544000    1.0080628   -3.7265742    0.3581156   -1.9823723 0.00010773458 
 2545000    1.1431848   -4.3934116   0.17474216   -2.6467903 3.4456094e-05 
 2546000    0.7678642   -4.3256584   0.43050473   -2.8393404 0.00015249628 
 2547000    1.0791564   -4.2846498   0.60892914   -2.1918806 -0.0003845727 
 2548000   0.89986702   -3.9445385   0.51662275   -2.1905986 -0.00023393649 
 2549000   0.97310166   -4.2324239    0.1895242    -2.704885 -0.00011232945 
 2550000    1.1880017   -4.2521748   0.64328771   -1.9753847 -0.0001681694 
 2551000   0.74756304   -4.0535054   0.38834062   -2.6372656 -0.00015252981 
 2552000    0.8910648   -4.1266143   0.53475685   -2.3666434 -0.00016843763 
 2553000   0.82108857   -3.8292954   0.54786885   -2.1524297 -0.00027468796 
 2554000   0.77192365   -4.2155069   0.14643056   -3.0076814 -9.125623e-05 
 2555000   0.90304228   -3.9774358   0.63831416   -2.0974385 0.00014913468 
 2556000   0.94731164   -3.9767703   0.18533241   -2.4888844 0.00027921086 
 2557000    0.8360945   -4.2567351   0.35830738   -2.7487978 0.00011404558 
 2558000    1.2250219   -4.0464295   0.50695169   -1.8550728 6.3588736e-05 
 2559000   0.87736975   -4.3819597   0.20828463   -2.9672917 -9.9082363e-05 
 2560000   0.91810265   -3.9690545   0.51121845   -2.1954449 0.00021385723 
 2561000    1.6659908   -3.9469743   0.56193301   -1.0943038 0.00035185013 
 2562000    1.0831321   -3.8351925   0.25153785    -2.094348 -0.00035346466 
 2563000    1.0633596     -4.40498   0.45486727   -2.4879933 -2.3024347e-05 
 2564000   0.70626001   -4.2889531   0.70261761    -2.615228 -0.00016899405 
 2565000    1.0588251   -4.1333998   0.55186737    -2.125648 -0.00031788317 
 2566000   0.81754587   -4.3496728   0.19964118    -3.025906 -7.2997052e-05 
 2567000   0.83132741   -4.0522858   0.51202084   -2.3971898 -6.6203316e-06 
 2568000    1.1284439   -4.1242652     0.377661   -2.1949939 0.00014105588 
 2569000    0.7463976   -3.8179124   0.20984179   -2.5817739 -0.00037047535 
 2570000    1.0664814   -3.9173244   0.59652606   -1.8543865 -6.1806947e-06 
 2571000   0.60648622   -4.0430108   0.44857103   -2.7605212 -6.5069661e-05 
 2572000    1.0106711   -4.0183299   0.48232937   -2.1463278 0.00019388045 
 2573000    1.4643413   -4.0470778   0.38959316   -1.6440154 -2.6209999e-05 
 2574000   0.93283625   -3.7091832   0.33430789   -2.0922254 0.00012638166 
 2575000   0.98554141   -4.2955978   0.72315052   -2.2173279 -5.543044e-05 
 2576000   0.88321115   -4.1434023   0.27475096    -2.654236 -7.1527267e-06 
 2577000    1.1645773   -4.1069525   0.33387722   -2.1717815 -0.00027957665 
 2578000   0.65444898   -4.3817135   0.49876575   -2.9830804 -3.1739867e-05 
 2579000   0.90432616   -3.8618678   0.56507758   -2.0533418 -4.8395362e-05 
 2580000    0.9670093   -4.1126966   0.69966976    -2.083389 -6.2396595e-05 
 2581000    1.2799096   -3.3692445   0.16316814   -1.4462007 -5.8072243e-05 
 2582000    1.1154907    -3.945892   0.51382754   -1.8982648 -0.00028392555 
 2583000    0.6169038   -3.8736696   0.59430049   -2.4311264 -0.00015248334 
 2584000    0.9674975   -3.9762123   0.20121053   -2.4446927 -0.00020326069 
 2585000    1.4357128   -4.0603884   0.47134121   -1.6149422 0.00024744787 
 2586000    1.1181906   -3.7007029    0.1495115   -2.0136793 0.00010380207 
 2587000   0.76519997   -4.2012304   0.25439753    -2.894683 -0.00020650773 
 2588000    1.2595141   -4.1767621   0.39493576   -2.0499945 -6.9486943e-05 
 2589000   0.74201777   -3.8805297   0.57671097   -2.2835443 -3.4226907e-06 
 2590000   0.99971281    -3.816668   0.57621916   -1.8658437 0.00015387362 
 2591000   0.84425986   -3.9096114   0.61426314   -2.1344909 -0.00014186967 
 2592000   0.90579785   -3.2797955   0.66443195   -1.3698915 -4.1913178e-05 
 2593000   0.77244208   -3.4539482     0.425969   -1.9658713 0.0001076199 
 2594000    1.1685706   -4.0284271   0.39558554    -2.026057 -2.4830485e-05 
 2595000   0.51036171     -3.78796   0.29116742   -2.7950452 2.2940409e-05 
 2596000    1.1858634    -3.395111   0.14417462   -1.6203742 0.00061858134 
 2597000    1.3628214   -4.5263078   0.43304587   -2.2193825 -8.8114362e-05 
 2598000    1.6064553   -3.6842057   0.33849621   -1.1368334 0.0004670427 
 2599000   0.90551214   -4.2591119   0.59407383   -2.4199589 7.1441485e-05 
 2600000    1.2371621   -3.6051842   0.63293019   -1.2711561 -7.6232355e-05 
 2601000   0.55091543   -3.5844409     0.293849   -2.5330832 -4.0313855e-05 
 2602000    1.1796887   -3.9821854    0.2487394    -2.111374 0.00025463169 
 2603000     1.091462   -3.4011794    0.4888349   -1.4115842 -0.00014879302 
 2604000   0.76828464   -3.8503926   0.31232052   -2.4816807 -0.0001332025 
 2605000    1.2810665   -3.9680465   0.45784574   -1.7487344 0.00013829023 
 2606000   0.71558519   -3.7594925   0.53855346   -2.2370094 -4.0922766e-05 
 2607000   0.75875512   -4.1210312   0.44025664   -2.6374863 -1.403198e-05 
 2608000    1.0179156   -3.8392922   0.36433758   -2.0753207 -5.097772e-05 
 2609000   0.87262771   -3.7951398   0.44343254   -2.1518442 0.00014240397 
 2610000   0.78653086    -3.860019   0.66019509   -2.1183439 -0.00030093103 
 2611000   0.86750563   -4.2525806   0.32989617   -2.7298642 0.0002077131 
 2612000    1.2589212   -4.1182048   0.12529502   -2.2618931 0.00037303849 
 2613000   0.92461521   -3.8913214   0.17427989   -2.4456956 0.00065021496 
 2614000   0.80893496   -3.7691301   0.48655819   -2.1702863 -4.8960709e-05 
 2615000    1.1831201   -3.8582211   0.17040097   -2.0610301 -3.7508561e-05 
 2616000   0.85077298   -3.8576562    0.3715712   -2.3162721 -1.7838727e-05 
 2617000    1.3903363    -3.531597   0.19743132   -1.4224532 0.00096886157 
 2618000   0.58886976   -2.7544638   0.28975891    -1.655009 0.00044440754 
 2619000    0.7494253    -4.233478   0.60735844   -2.5956598 -0.00044189492 
 2620000    1.1880187   -4.0076236   0.25627785     -2.11782 -2.6725026e-05 
 2621000    1.0235434   -4.1037701   0.33563942   -2.3607586 1.7329976e-05 
 2622000   0.73396035   -4.1635029    1.0229264   -2.1313811 -6.2331115e-05 
 2623000    1.1119612     -4.28679   0.47434154   -2.2835018 0.00013102679 
 2624000   0.63276006    -4.043626   0.29294102   -2.8806399 0.0003443854 
 2625000   0.92014233   -4.2757562   0.46243177   -2.5481287 -0.00014867169 
 2626000   0.92140845   -3.9244126  0.083417881   -2.5740581 4.732747e-05 
 2627000   0.86214925   -3.9758214   0.05296272   -2.7374034 0.00014110439 
 2628000   0.82705282    -4.082113   0.31531874   -2.6295966 1.3966494e-05 
 2629000    1.1290699   -4.0375382   0.33188861   -2.1531785 0.00026294014 
 2630000   0.84966765   -4.1233363   0.32267972   -2.6323636 5.0982519e-05 
 2631000   0.76706716   -3.8968439   0.54143225   -2.3006943 -0.00035287213 
 2632000    1.1634978   -4.2370629   0.37637727   -2.2608761 0.00023472379 
 2633000    1.1770481   -4.1409911   0.54435315   -1.9781969 0.00014480282 
 2634000   0.87880209   -3.6531166   0.59685356   -1.8479102 -9.358414e-05 
 2635000   0.82269762   -3.9196652   0.58347386   -2.2049821 -0.00019796864 
 2636000   0.79757935   -4.1665227   0.22860118   -2.8412499 -9.0673887e-05 
 2637000    1.1904365   -3.8494777   0.30174805   -1.9108796 0.00019013398 
 2638000   0.60113121   -4.4205822   0.34319197   -3.2508348 -4.5015344e-05 
 2639000   0.81344857   -3.7234237    0.5430749    -2.061857 0.00028262306 
 2640000   0.84503569   -3.9750941   0.79104378   -2.0221263 -0.00039366115 
 2641000   0.88031823   -4.1025711   0.44423997   -2.4478936 -0.00031803335 
 2642000    1.0361906   -3.7556243   0.54971704   -1.7811452 -2.2081556e-05 
 2643000   0.74645872   -4.0807289   0.67642956   -2.3779186 -0.00031566609 
 2644000   0.91883508   -3.5475188   0.26914856    -2.014972 -0.00030125624 
 2645000   0.84208606   -3.7670518   0.57793109   -2.0312524 0.00024459878 
 2646000   0.79223259   -3.7490465   0.36102816   -2.2986985 0.00030712549 
 2647000   0.77196759   -3.6100855   0.38281747   -2.1658126 7.7051424e-05 
 2648000   0.86334789    -3.126229   0.34630884   -1.5928168 5.1923583e-05 
 2649000   0.59885039   -4.0827074   0.46052097   -2.7987671 1.4640094e-05 
 2650000     1.317984   -4.1738461   0.46626152   -1.8953565 -0.0002015702 
 2651000    0.7868681   -4.0834211   0.24508494   -2.7563925 0.0001864693 
 2652000    1.0051028   -3.7119621   0.76075658   -1.5691892 -0.00015785041 
 2653000   0.74171559   -4.1465874   0.41064431   -2.7160841 -0.00022410012 
 2654000    1.1562435   -4.1346141   0.29705676   -2.2477226 0.00029861794 
 2655000    1.1428727   -3.2359523     0.253309   -1.4111934 0.0003561233 
 2656000    1.3243343   -4.2077178   0.30454411    -2.082214 0.00030185479 
 2657000     1.046976   -3.8594316   0.56684163    -1.852998 -4.4679833e-05 
 2658000   0.92219206   -4.1640864   0.20289259   -2.6931798 0.00021898752 
 2659000   0.89587632   -3.5641305   0.29651622   -2.0357844 0.00018171687 
 2660000    0.7443245   -4.2085044   0.77134931   -2.4137089 -4.1604661e-05 
 2661000   0.89608537   -4.1922806   0.28890134   -2.6712619 -2.3510017e-05 
 2662000   0.89530441   -3.5268429   0.43030333    -1.865496 -2.8700833e-05 
 2663000    1.0881832   -4.3214265   0.91923049   -1.9059442 0.00015690085 
 2664000    1.5000919   -4.1755908   0.24671006   -1.8662543 8.2724831e-05 
 2665000   0.83788944   -3.4409228   0.21919157   -2.0696332 0.00018476498 
 2666000    1.0458502   -3.7280551    1.2266543   -1.0633568 -0.00065080316 
 2667000    1.2178097   -3.8061324   0.24945611   -1.8821879 -8.2894332e-05 
 2668000     1.550419   -4.0243361    0.4201774   -1.4723326 0.00034391515 
 2669000    0.7919675   -4.3735358   0.57609892   -2.7084816 -8.8821877e-05 
 2670000   0.86056248   -3.9171104   0.56673925   -2.1670978 -0.00013303885 
 2671000   0.73087169   -3.9892985    0.5064402   -2.4779097 9.261807e-05 
 2672000    1.2559223   -4.2281354   0.38855912   -2.1126831 6.3620119e-05 
 2673000   0.74136102   -4.0445352    0.4306635   -2.5945003 0.00040481572 
 2674000   0.88784971   -4.4138705   0.36513849   -2.8279386 -9.4081695e-05 
 2675000   0.92899696   -4.1540204   0.62361697   -2.2530326 1.0729368e-05 
 2676000   0.79470267   -3.8916701   0.49273843   -2.3062155 -6.8488804e-05 
 2677000     1.320225   -3.7281972   0.33480436   -1.5780835 8.4263283e-05 
 2678000   0.90329425   -3.7951828   0.53994333   -2.0132098 0.00011666533 
 2679000    1.1341089   -4.1142747   0.28242666   -2.2724483 9.8005778e-05 
 2680000     1.007113   -3.7459018   0.28697706   -2.0741444 0.00012629937 
 2681000   0.92399397   -3.2873356   0.61366772   -1.4031762 7.4028878e-05 
 2682000     1.585263   -4.3468315   0.79563463   -1.3714603 -0.00024280484 
 2683000   0.75990645   -4.1766236   0.81095797   -2.3207943 -2.6400759e-05 
 2684000    1.3107109   -3.5791472   0.27524044   -1.5016793 -0.00014342402 
 2685000   0.92164622   -3.9286151   0.21909305   -2.4422585 1.2121606e-05 
 2686000    1.0905752   -3.8933606   0.34681392   -2.0470058 -0.00017794208 
 2687000   0.88349702   -3.7370923   0.35255422   -2.1697297 0.00034354134 
 2688000   0.77507868    -4.483686   0.38037208   -3.0375807 0.00019996966 
 2689000   0.62801189   -3.8151798   0.25033912   -2.7013244 -2.2040452e-05 
 2690000    1.4313957   -3.5378854   0.51111948   -1.0585968 -0.00017683958 
 2691000   0.76359081   -3.7411263   0.30800027   -2.3831887 0.00015192875 
 2692000   0.60705251   -4.0480413   0.71586532   -2.4974788 -0.00016397886 
 2693000   0.75590763   -4.0437543   0.36137184   -2.6430095 0.00012045176 
 2694000   0.89441534   -3.1099692   0.29232308    -1.587825 4.5191276e-05 
 2695000    1.1159378   -4.1366935   0.35603017   -2.2462488 5.0859234e-05 
 2696000     1.121519    -4.125557   0.15426763   -2.4292007 -0.00021083593 
 2697000    1.0159188   -3.9377332   0.36891455   -2.1719303 0.00029727319 
 2698000   0.75278761   -3.4568082    0.4169499   -2.0047753 0.00023718518 
 2699000   0.88513124   -3.7277622   0.38881703   -2.1218897 0.00011764676 
 2700000    1.1553975   -4.0995862   0.34980249   -2.1611121 -8.9274889e-05 
 2701000   0.84734784   -2.8400867   0.51451264   -1.1604708 -0.00023851184 
 2702000   0.82453064   -3.6235659   0.43728199   -2.0525543 -0.00040155349 
 2703000    1.4217517   -4.2987018    0.5255009   -1.8182923 8.8889823e-05 
 2704000   0.86355498   -3.8694629   0.40289813   -2.2791767 9.5160542e-05 
 2705000   0.97676058   -3.8830673   0.20790629   -2.3321152 0.00036475231 
 2706000   0.97657954   -4.0573507   0.52705662   -2.1874973 3.0792873e-05 
 2707000    1.1154065   -3.6370011   0.38699326   -1.7163238 -7.8033783e-05 
 2708000   0.90541543   -4.0169111   0.21672353   -2.5552413 0.00044889999 
 2709000   0.88308297   -4.2260511    0.3012826   -2.7105294 0.00012122183 
 2710000    0.6220668   -3.5348154   0.69939772   -1.9800758 0.00013456966 
 2711000    1.4075327   -4.1177345   0.23526398    -1.947113 0.00030609862 
 2712000    1.0871939    -3.564164   0.28653084   -1.7827415 0.00018673843 
 2713000    1.0328696   -4.2664333   0.46362714   -2.3826104 -0.00013619199 
 2714000   0.77401757   -4.0268293   0.54729803   -2.4152571 0.0002006066 
 2715000    1.2164733   -3.8429775   0.69802783   -1.4722989 -0.0001133555 
 2716000    0.7206537   -3.2821224   0.44474752   -1.8464761 3.5229129e-05 
 2717000   0.61627935   -3.9208488   0.68264767    -2.390817 -0.0004050341 
 2718000   0.64299915   -3.5599392   0.56905353   -2.1067618 0.00026782405 
 2719000   0.71398104   -3.8685804   0.81140193   -2.0754545 -0.00032647899 
 2720000    1.0245367   -4.3754247   0.68344363   -2.2832431 0.00028794109 
 2721000    1.0954305   -4.0570265   0.29251127   -2.2582983 0.00034010925 
 2722000    1.5188976   -3.8817306   0.96212411   -0.8311223 -0.0001029507 
 2723000      1.00099   -4.0071492   0.40500991   -2.2257781 3.0769654e-05 
 2724000    1.1663461   -3.9997686   0.20248851   -2.1935542 0.00037742505 
 2725000    1.0068911   -3.9714972   0.63658241   -1.9504396 -0.00021342564 
 2726000   0.87725717   -3.6254585    0.6080947   -1.8111352 -0.00051701262 
 2727000    1.0720229   -3.3751624    1.1573409     -0.74379 -0.00010014052 
 2728000   0.91506792   -3.7715495   0.66798173   -1.8453494 -0.0001538982 
 2729000   0.91643022   -4.0430138   0.63850347   -2.1444188 -0.00010379158 
 2730000   0.79207906   -3.7973339   0.67545972   -2.0327655 2.4176629e-05 
 2731000   0.92697485   -3.6411409   0.58632703   -1.7802235 -8.0781461e-06 
 2732000    1.5010087   -4.1157486   0.53149886   -1.5203628 0.00011670987 
 2733000   0.97710743   -4.1885178   0.46866905    -2.376326 -0.00016917791 
 2734000   0.96899893   -3.6443448   0.52996405   -1.7820072 2.5548385e-05 
 2735000    1.1940127   -4.1503923   0.48653702   -2.0220878 0.00029389866 
 2736000    1.3762907   -3.5380948   0.50693132   -1.1387638 -0.00033056817 
 2737000   0.87971513   -3.9158519   0.48447361     -2.22177 6.7041525e-05 
 2738000    1.5712341   -3.5696126   0.59332131  -0.81584445 -0.00016970817 
 2739000    1.0809776   -3.9633492   0.34049749   -2.1365075 -8.704359e-06 
 2740000    1.0877079   -4.0858172   0.67977661   -1.9104423 0.00024129506 
 2741000   0.84075753   -3.6213188  0.094963936   -2.3703132 -0.00010784375 
 2742000    0.7151403   -4.0566369   0.34539778   -2.7279212 -0.00014143127 
 2743000    1.1685448   -4.1420678   0.52873415   -2.0065845 0.00014275798 
 2744000    1.0420552   -3.8260842   0.54226181   -1.8509964 0.00051918321 
 2745000   0.89330781   -3.5183655   0.34838761   -1.9416797 -0.00013272806 
 2746000    1.0140354   -3.8368708    0.3776957   -2.0648764 0.0003791809 
 2747000    1.0585786   -3.7544709   0.51418534     -1.78474 -9.7667708e-05 
 2748000   0.85226987   -3.8645282   0.53883496   -2.1538222 5.2255007e-05 
 2749000   0.96110849   -4.1466374   0.43553873   -2.3895744 -0.00023542038 
 2750000    1.1626584   -3.4498636     0.348306   -1.5029023 0.00017328776 
 2751000    0.4919138   -4.2816827   0.29051896   -3.3147823 -1.798489e-06 
 2752000   0.89478536   -4.0777425    1.0456825   -1.8017301 -0.00039592356 
 2753000    1.5086348   -2.9350158   0.42410439   -0.4365386 0.00085655104 
 2754000   0.88659867    -3.422009   0.69931677    -1.503619   0.00021288 
 2755000   0.97503141   -3.6097376   0.46695396   -1.8021154 9.8213357e-05 
 2756000    1.1424644   -3.8510136    0.1401937   -2.1399314 5.192564e-05 
 2757000   0.69205505   -4.0506459   0.43143899   -2.6676312 8.720508e-05 
 2758000    1.2205365   -3.8199918   0.22493538   -1.9168187 0.00057235506 
 2759000   0.77120557   -4.1337868   0.40624468   -2.6671344 -0.00014161233 
 2760000    1.2826369   -4.2151898    0.9221212   -1.5294428 -0.00032114483 
 2761000    1.0152686   -4.1542511   0.50827903   -2.2499776 0.00015703843 
 2762000   0.90982413   -3.6324137   0.48097161   -1.9004339 -0.00025242059 
 2763000   0.83905545    -3.962697    0.2255401   -2.5834557 0.00012664806 
 2764000   0.94842283   -3.6582581   0.28095808   -2.0732187 0.00041878645 
 2765000    0.9811113   -3.5564463   0.56223445   -1.6451838 -0.00017619672 
 2766000    1.3989835   -3.6444491   0.46734428   -1.2535025 -0.00027308131 
 2767000    1.2631871   -3.4999491   0.39897476   -1.3640922 0.0001690379 
 2768000   0.94750818   -4.0585464   0.17885283   -2.5768699 0.00017298035 
 2769000    1.0416279   -3.6872106   0.36620755   -1.8887647 0.00052131475 
 2770000    1.1316946   -4.0132202   0.59340028   -1.8637399 -0.00029593163 
 2771000   0.72843049   -4.0501598   0.28971127   -2.7588566 7.151026e-05 
 2772000   0.97254852    -4.159871   0.74570531   -2.0769114 -0.00045267949 
 2773000   0.74947313   -4.1388318   0.69078337   -2.4175229 -0.00037816911 
 2774000    1.0119923   -4.0582218    0.4735334   -2.1931989 -5.8335447e-05 
 2775000   0.60891473   -3.4682367   0.28849625   -2.3424827 0.00014559663 
 2776000   0.69847133   -4.3294513   0.44471577   -2.9243374 -0.00011254044 
 2777000    1.3541886   -3.9736239   0.50355791   -1.6080567 0.00029840867 
 2778000     1.242546   -3.9997087   0.51665252   -1.7745555 -0.00037283431 
 2779000    0.9623562   -3.9306737   0.31815119   -2.2892827 -3.0779059e-05 
 2780000   0.70826525   -4.0308055    0.5347778   -2.5221629 4.7244387e-05 
 2781000    1.0637838   -3.8430847   0.33114767   -2.0492343 -0.00021081239 
 2782000   0.85781655   -4.4599392    0.3605358   -2.9199057 -0.00015963969 
 2783000    1.5209902   -3.6513143   0.59000936  -0.96994331 0.00010822006 
 2784000   0.94013001   -3.9878962    0.3608214   -2.3343961 -0.00022353747 
 2785000    1.4440001    -4.151677   0.78356959   -1.3826072 7.5439175e-05 
 2786000     1.021936   -4.0636974   0.28681217   -2.3717232 0.00016481864 
 2787000    1.1023249    -4.074023   0.50389412   -2.0544322 -0.00028452693 
 2788000   0.79449092   -3.9349346    0.2130011   -2.6295085 0.00036015981 
 2789000    1.0012917   -3.4876959   0.39130386   -1.7196159 0.00014701467 
 2790000      1.44364   -3.5287035     0.357625   -1.1860736 0.00030083633 
 2791000   0.96289659   -3.5672702   0.23194719   -2.0113402 9.5220932e-05 
 2792000    0.9226058   -3.8329637   0.84387566    -1.720505 -0.00044039752 
 2793000    1.2108287   -4.1761906   0.75032188   -1.7609792 -0.00057734946 
 2794000   0.73533757   -4.1186359   0.34888887   -2.7586579 -0.00023330103 
 2795000    1.2163435   -4.1231991   0.38759733   -2.0631295 0.0001981602 
 2796000   0.73975724   -3.6811416   0.45407053   -2.2099049 0.00011097723 
 2797000   0.85082756   -3.4312985   0.55342105   -1.7079895 -0.00010876351 
 2798000    1.2603407   -3.9582596   0.45869656   -1.7665945 0.00011540085 
 2799000   0.89657852   -4.0000901   0.22647962    -2.540815 -5.5438075e-05 
 2800000   0.84402055   -2.8109734   0.61854067   -1.0319045 -0.00021631855 
 2801000     1.005206   -3.4839493   0.49271757   -1.6090736 0.00016775817 
 2802000   0.98188215    -3.430197   0.99915263   -1.0809564 -0.00052426243 
 2803000   0.89118173   -3.2703667   0.53931922   -1.5056726 0.00019271717 
 2804000   0.78133033   -3.8145614    0.1720411   -2.5681911 0.00014535386 
 2805000   0.84064097   -3.8701006   0.58595425    -2.128265 -9.4882314e-05 
 2806000    1.3528073   -3.6468269   0.64076814   -1.1459487 0.00012161622 
 2807000    1.0710656   -4.0099169   0.40816192   -2.1290398 -0.00018448547 
 2808000   0.57865864   -3.9364126   0.44609669   -2.6946603 4.1130437e-06 
 2809000    1.2055834   -3.8595358   0.47419369    -1.727665 0.00019715393 
 2810000   0.97166402   -3.8245026   0.48373186   -2.0047327 -7.2696806e-05 
 2811000    0.9286259   -3.1909228   0.38668479   -1.5273774 -0.00034149342 
 2812000   0.86294855   -3.3134844   0.38825066   -1.7386795 0.00044300056 
 2813000    1.0020066   -4.4231897   0.41223759    -2.633193 0.0001336187 
 2814000   0.83782876   -3.6957086    0.4485882   -2.0951059 -2.1592273e-05 
 2815000   0.81963146   -3.8370308   0.13910907   -2.5709284 0.00046537419 
 2816000    1.0378387   -3.8711275    0.5417463   -1.9023531 0.00050730849 
 2817000   0.55812799   -3.0476913    0.2387844   -2.0414809 -0.00015776748 
 2818000   0.97722124   -3.8267838   0.21946471   -2.2636399 -7.0821873e-05 
 2819000   0.67330139   -3.9180815   0.55409298   -2.4381991 -4.63716e-05 
 2820000    1.0594402   -4.1540847   0.86106903   -1.8362854 -0.00046420091 
 2821000   0.78520452   -4.1375312   0.17723498     -2.88064 1.9986379e-05 
 2822000    1.3815384   -4.2704037   0.32382298   -2.0469654 0.00019968161 
 2823000    1.0279434   -3.6101782   0.21942139   -1.9773346 -6.385021e-05 
 2824000    1.3586878   -3.3123601    0.5512836  -0.89288084 -4.3802304e-05 
 2825000    1.1807123   -4.1250038   0.86774842   -1.6337759 -0.0001780652 
 2826000     1.361573   -4.1979348   0.73804921   -1.5877228 -0.00011722137 
 2827000   0.81470503   -4.1190274   0.23624378   -2.7625642 2.7523227e-05 
 2828000   0.90986051   -4.3106469   0.61248379   -2.4471049 -5.9002811e-05 
 2829000    1.2495505   -3.5224209   0.46784344   -1.3364454 2.1096537e-05 
 2830000    1.0328329   -4.3478881   0.51345443   -2.4142884 -0.00019415158 
 2831000   0.96761857   -4.1231677   0.68622862   -2.1064635 0.00042285482 
 2832000    0.7890181   -3.8705419   0.35397366   -2.4316684 0.00018538318 
 2833000   0.98825208   -3.6581131   0.37387737   -1.9253892 0.00022285705 
 2834000   0.63356123   -3.3614108   0.23877138   -2.2514928 0.00025769481 
 2835000   0.63690317   -3.6691236   0.22627375    -2.567108 -7.503052e-05 
 2836000    1.0173092   -3.9330981   0.25623479   -2.2780632 -8.5749445e-05 
 2837000     1.489992   -3.4065769   0.60426329  -0.75357457 -0.00011728626 
 2838000    1.1659124   -4.0889807   0.51108291   -1.9747682 0.00010168019 
 2839000   0.97146847   -4.2280217   0.82314822   -2.0691044 -0.00013179195 
 2840000    1.0665405   -4.0383374   0.23180634   -2.3400379 0.0003427098 
 2841000   0.79850329    -4.238765   0.54765087   -2.5931721 -5.8260883e-05 
 2842000    1.1265397   -3.9126463   0.85748893   -1.5061653 -0.00016184333 
 2843000   0.90294382   -3.6262822   0.78409256   -1.6006418 -5.7805393e-05 
 2844000    1.5891714   -4.1307572   0.45979184   -1.4858547 -5.6306013e-05 
 2845000   0.90108538   -3.7329995   0.18985214    -2.304155 0.00032113774 
 2846000   0.88812908   -3.1466897   0.44336537   -1.4821469 0.00022720925 
 2847000   0.46827222   -4.1258477   0.60981434   -2.8721591 -0.00016377192 
 2848000    0.9728149   -3.9613626   0.31165498   -2.3120871 0.00015869404 
 2849000   0.75664953   -3.8280746   0.66160036   -2.1260811 -0.00013149943 
 2850000     1.041981   -4.1202028   0.34046433   -2.3470147 -1.8207193e-05 
 2851000    1.1585798   -4.2574704    0.7054885   -1.9589347 8.9384267e-05 
 2852000   0.98589829   -4.1732642   0.21190244   -2.6057516 0.00031367403 
 2853000     1.261577   -3.7028421   0.36977099   -1.5984027 -1.6624482e-05 
 2854000   0.90924957   -3.9087647   0.26418231   -2.3943642 0.00011117768 
 2855000    1.3476669   -3.9189562   0.72912382   -1.3367905 -7.8426269e-05 
 2856000    1.1753355   -4.0319608   0.34687152    -2.069003 -9.9680181e-05 
 2857000   0.61145651   -3.9624186   0.37284524   -2.7488207 -3.4907599e-05 
 2858000   0.96026169   -3.9646712   0.47283326   -2.1714781 -0.00013019898 
 2859000    1.0158989   -3.8967821   0.27658248   -2.2233386 0.00013014109 
 2860000   0.96085511   -4.3132495   0.58715898   -2.4049147 0.00015509994 
 2861000   0.57240141   -4.1542244   0.45183812   -2.9153343 4.4296586e-05 
 2862000   0.79357964    -3.884791   0.74868119   -2.0449378 0.00017852012 
 2863000    1.3489493   -3.6734428   0.32381826   -1.4948192 0.00025710296 
 2864000   0.94085223   -4.1830511   0.28438992   -2.6049894 -0.00013267181 
 2865000   0.58948809   -3.7059495   0.46973635    -2.425667 -5.8330752e-05 
 2866000    1.3439767   -3.9792929    0.5660491   -1.5652759 3.5710323e-05 
 2867000   0.74714929   -4.1230793   0.21056007   -2.8851889 -9.0189362e-05 
 2868000    1.1031816   -4.0916276   0.12015688    -2.454596 -1.2473228e-05 
 2869000    1.1328026   -3.9905436   0.41822716   -2.0147129 8.1052323e-05 
 2870000   0.95561747   -4.0873395   0.49382359   -2.2795419 -0.00015299341 
 2871000    1.0105478   -4.2823193    0.3830458   -2.5097702 2.0023151e-05 
 2872000     0.911872    -3.680952   0.23665832   -2.1904697 -0.00025891719 
 2873000    0.9315963   -3.9927225   0.79290781   -1.9188698 -0.00013753568 
 2874000    1.1500869   -4.2403896   0.34562295   -2.3133971 8.4801166e-05 
 2875000    1.1007005   -4.3940777   0.28167308   -2.5989415 0.00013462283 
 2876000    1.6035658   -4.0714924   0.55693671   -1.3096527 6.5817022e-05 
 2877000    1.3482456   -4.2978332   0.66285908   -1.7811363 -9.0235917e-05 
 2878000   0.58912504   -4.2715863   0.26445972   -3.1970797 -3.1898723e-05 
 2879000    1.0227325   -3.9407672    0.9362877   -1.5982222 0.00016371807 
 2880000   0.89487274     -4.13564   0.42267469   -2.4825153 0.00010598598 
 2881000    1.0284182     -3.97247   0.14385205   -2.4145429 0.00031704948 
 2882000    0.8516833   -3.6307596   0.54006657   -1.9196284 -0.00020513516 
 2883000    1.2140236   -4.1592747   0.65717789   -1.8328143 -0.00010812283 
 2884000   0.65057124   -3.1081355   0.34990187   -1.8636982 4.2074776e-05 
 2885000   0.63017978   -4.1702058   0.87122896   -2.4324797 0.00015970027 
 2886000   0.71375994   -3.8313596   0.72725427   -2.1226854 -0.0001524889 
 2887000     1.186886   -4.1508251   0.24206486   -2.2767919 -0.00014362207 
 2888000    0.9693509   -4.3144726   0.79581339   -2.1858017 -0.00044991749 
 2889000    1.1189506   -4.1093197   0.62744426   -1.9433184 0.00013311861 
 2890000   0.60457612   -4.0295159   0.21630754   -2.9819162 8.9999615e-05 
 2891000   0.73488672   -4.0491293   0.44562352   -2.5930365 -2.2812545e-05 
 2892000   0.63735828   -3.9264107   0.23715663   -2.8128865 0.00022259707 
 2893000    1.1014062   -3.8722228   0.25589345   -2.1018958 0.00037647529 
 2894000   0.74551428   -3.7737238    0.4200322   -2.3286095 0.00019085401 
 2895000   0.89404481   -3.8580264   0.13258029   -2.4961345 0.00018015103 
 2896000    1.1946706   -4.1113573   0.47442618    -1.994259 0.00034636292 
 2897000    0.7684836   -3.4644259   0.27696463   -2.1307963 -0.00019679561 
 2898000    1.3536289   -3.9771677    1.0028214   -1.1131067 -0.00010481605 
 2899000    1.0125012   -3.8899006   0.32335192   -2.1743595 -0.00020455749 
 2900000   0.93535326   -4.3208709    0.5009084   -2.5338517 0.00030729992 
 2901000     1.569001   -4.2788367   0.49069309   -1.6307672 1.9552813e-05 
 2902000   0.93210469   -4.4198533   0.31493671   -2.8232726 -0.00011800623 
 2903000     1.088263   -4.1337421   0.38459612   -2.2527844 8.6561268e-05 
 2904000   0.96976398   -3.5688349   0.54808079   -1.6873286 -0.00020171582 
 2905000   0.95979644   -3.7473339   0.35560822   -2.0720056 -8.1111025e-05 
 2906000   0.60242571   -3.9686557   0.65627436   -2.4840459 0.00022536012 
 2907000   0.87783902    -4.409242   0.54888465   -2.6533288 -0.0003063687 
 2908000   0.95395447   -3.8651137   0.49647292   -2.0569534 -0.00013543861 
 2909000   0.62172691   -3.8534434   0.25145752   -2.7471114 0.00034846484 
 2910000    0.7663601   -3.6225462   0.37262196   -2.1961791 -2.5309948e-05 
 2911000   0.88111852   -4.3194303    0.7088691   -2.3990232 -1.7538009e-05 
 2912000    1.3867875    -4.046945   0.41823959   -1.7218726 3.9728474e-05 
 2913000   0.64163696   -3.6081228   0.88993643   -1.8359356 2.9367806e-05 
 2914000   0.83219757   -4.0539395   0.23255328   -2.6771146 0.00038160868 
 2915000   0.76784707   -3.9312274    0.4148462   -2.4605914 -4.5933065e-05 
 2916000   0.97979663    -4.181573   0.25020488   -2.5841478 7.1447846e-05 
 2917000   0.96124868   -3.7952068   0.30606196   -2.1674279 0.00034436498 
 2918000   0.90361292   -4.1706478   0.41215424   -2.5160258 2.7760143e-05 
 2919000    1.3106367   -3.8899846    0.1879821   -1.8998771 1.0669023e-05 
 2920000   0.67740617   -4.0475972   0.20732344   -2.9088403 0.00033409566 
 2921000   0.74063134   -3.9402068   0.29874301   -2.6230957 -2.6113454e-05 
 2922000    1.1569366    -3.975455   0.73309533   -1.6515719 -1.58497e-05 
 2923000    1.5464617   -3.9853028   0.49645376   -1.3624642 0.00024691858 
 2924000   0.90427274   -3.8478162   0.67821723   -1.9262239 -0.00032131208 
 2925000   0.57573074   -4.2207217   0.75043494   -2.6786569 -0.00048694066 
 2926000    1.2608938   -4.0100418   0.60505413   -1.6712586 -2.9087116e-05 
 2927000   0.53234363   -3.8116748   0.53543792   -2.5442644 -0.00046528406 
 2928000   0.88175745   -4.3415879   0.54943153   -2.5797398 -6.7029593e-05 
 2929000    1.2260859   -4.1053754   0.35244143   -2.0670658 -0.00028349508 
 2930000   0.84388833   -3.9005601   0.52356726   -2.2166464 -5.9847977e-05 
 2931000    1.6376391   -4.0952461   0.47659865   -1.3668936 0.00035745053 
 2932000   0.90157623   -3.9750675    0.2524062    -2.482994 -0.00039747293 
 2933000   0.96009538   -4.0169166   0.39754818   -2.2992372 -0.00012049999 
 2934000    1.2203672   -3.8936637   0.53338978   -1.6822689 0.00025591927 
 2935000     0.865522    -4.421791    0.4014487   -2.8302496 -2.771099e-05 
 2936000    1.4713865   -3.7801325   0.13446301    -1.622513 -0.00016462252 
 2937000   0.67708014   -4.2336366   0.28560395   -3.0170475 0.00034831272 
 2938000    1.0152255   -4.2747816   0.37928683   -2.4995597 0.00013175246 
 2939000    0.9859446   -3.5143125   0.18378682   -1.9748519 0.00010769642 
 2940000    1.0106107    -4.311186    0.7503989   -2.1711974 -0.00031764564 
 2941000   0.89403542    -3.625972   0.29255221   -2.1041211 1.8051219e-05 
 2942000   0.62079086   -4.3614344   0.42451602   -3.0833309 -4.558029e-06 
 2943000    1.0755433   -3.5231755   0.52207841   -1.5222251 -0.00020257052 
 2944000   0.97883351   -3.9924641   0.25806616   -2.3885019 -7.5809746e-05 
 2945000    1.3688707     -3.94037    0.4552334   -1.6029394 7.3940129e-05 
 2946000   0.90544177   -3.7267645   0.31750108   -2.1642809 8.1356646e-05 
 2947000     1.009085   -4.3630843   0.29349208   -2.6821003 -7.9756457e-05 
 2948000    1.2284413   -4.3673852   0.54769887   -2.1305795 -8.3650227e-05 
 2949000   0.77693531   -4.1059634   0.45358305   -2.5840943 -8.8259131e-05 
 2950000   0.98572156   -3.9311645   0.77951002   -1.7962873 -0.00032120492 
 2951000   0.84880677   -4.0128802   0.29662242   -2.5491485 3.8098564e-06 
 2952000    1.2132814   -3.8156612   0.47702276   -1.6703765 0.00044404621 
 2953000     1.366007   -4.1769467     0.765215    -1.533472 6.3919446e-05 
 2954000    1.0627599   -4.0748347   0.20654755   -2.4069923 0.0001535461 
 2955000   0.88209721   -4.0851356   0.65700928   -2.2152426 -0.00024698312 
 2956000    1.3107951    -3.755573   0.33772868   -1.6155011 0.00015039734 
 2957000   0.52022827    -3.797034   0.37646729   -2.7052529 -0.00026055836 
 2958000   0.93697941   -3.7811255   0.40842302   -2.0843558 -0.00032890539 
 2959000   0.86374461   -3.8555329   0.35923425   -2.3086498 9.311884e-05 
 2960000    1.3998864   -4.1108867   0.55223878   -1.6338041 7.6399944e-05 
 2961000    1.0583629   -4.0902821   0.67688737   -1.9581457 0.00018203142 
 2962000    1.0323859   -4.3845968   0.37609697   -2.5889692 -0.00017589888 
 2963000    1.1647587    -4.049763   0.40134862   -2.0468711 1.2838136e-05 
 2964000    1.6273042   -3.8436853   0.98155964  -0.62458239 -1.0353075e-05 
 2965000    1.4277443   -4.3454265   0.34784907    -2.034429 -0.00012749995 
 2966000   0.76806054    -4.056823   0.54535108   -2.4553887 -0.00017713007 
 2967000    0.7506097   -4.2414351   0.72681083   -2.4825359 -0.00019924569 
 2968000   0.94403457   -4.1564042   0.42604131   -2.4323154 -9.5276295e-05 
 2969000    1.0497183   -4.1516535   0.94720551   -1.7610853 0.00016927782 
 2970000    1.3282864   -4.2038716   0.46763903   -1.9098388 -0.0003972494 
 2971000    1.1708408   -4.3495124   0.45131132    -2.288295 0.00027871293 
 2972000   0.81268346   -3.7422584   0.62780823   -1.9970105 -0.00024378922 
 2973000   0.59545478    -4.064041   0.51824264   -2.7270481 -0.00012316945 
 2974000    1.0118799   -4.2258508   0.54938088   -2.2851351 0.00030484849 
 2975000   0.84258944   -3.7546832   0.93007399   -1.6660487 -0.00055641622 
 2976000    1.0309116   -4.1046858   0.30495051   -2.3822318 -4.3783346e-05 
 2977000   0.96660325   -3.7535897     0.176248   -2.2482622 0.00020389069 
 2978000    1.1830521   -4.3027836   0.87480759   -1.8012793 -0.00024463361 
 2979000   0.87641521   -4.1887622   0.74747309   -2.2362182 -0.00010505167 
 2980000    0.7141909   -4.0495244   0.17623642   -2.8912755 -4.8655309e-06 
 2981000   0.86660062    -3.767422   0.26478072   -2.3110654 0.00066112445 
 2982000   0.96495158   -3.8230703   0.49507593   -2.0011859 0.00027752576 
 2983000   0.95310519   -3.9205059  0.083243896   -2.5267424 -6.3113439e-05 
 2984000    1.3487643    -3.781323   0.24697456   -1.6797975 0.00013131425 
 2985000    1.0756914   -4.2068696   0.63633575   -2.0914581 0.00021879132 
 2986000     1.139368   -3.9737425   0.23471615   -2.1723954 1.6174927e-05 
 2987000    1.1044367   -4.1061684   0.20124695    -2.386321 4.5368472e-05 
 2988000   0.91813519   -3.9861246   0.50235719   -2.2213315 -4.3111382e-05 
 2989000       1.0343    -4.275334   0.25274075   -2.6004307 0.00010329614 
 2990000    1.1609163   -4.1200651   0.55904027   -1.9647648 1.9148112e-05 
 2991000   0.86960739   -3.6981258   0.26869043   -2.2337252 0.0006075651 
 2992000   0.88314479   -4.0656688   0.53194027   -2.3194044 -0.00020514842 
 2993000    1.4609748   -4.4509552   0.22543982   -2.2166751 -0.00010829973 
 2994000     1.219939    -4.052421   0.56821186    -1.806793 0.00020041613 
 2995000   0.96807023   -3.7199177   0.12237366   -2.2664475 0.00045960715 
 2996000   0.95362851   -3.9908013   0.35024181   -2.3293203 0.0002792676 
 2997000    1.0928356   -3.6126561   0.18818545   -1.9218217 -0.00025607034 
 2998000   0.82396806   -4.0798944   0.32312875   -2.6238095 0.00015356636 
 2999000   0.64983379   -4.0944903   0.54385527   -2.6571136 -0.00015816759 
 3000000   0.80339704    -4.412901   0.77580937   -2.5324207 -0.0004531115 
 3001000   0.87031122   -4.4994358    0.5941289    -2.708629 -0.00011982175 
 3002000   0.53273484   -4.3693642    0.3797401   -3.2571137 0.00020667101 
 3003000    1.3308103     -4.25312   0.52885654   -1.8943993 -0.00016812607 
 3004000    1.5315218   -3.7384142   0.46037277   -1.1721989 -0.00039137054 
 3005000    1.3200326   -4.2857811   0.50679983   -1.9639365 -0.00010228631 
 3006000   0.84312365   -4.0007092   0.70833707   -2.1330771 -6.8108691e-05 
 3007000   0.51334287   -4.1732275   0.29129584   -3.1760852 0.00019914005 
 3008000   0.73563588   -4.0910589   0.48806163    -2.591498 0.00022265224 
 3009000    1.0018835   -3.8968373   0.28688336   -2.2323642 0.00020510067 
 3010000    1.3613527   -3.6036854   0.50285914   -1.2289662 0.0003334294 
 3011000    1.2288329   -4.1806914   0.34440913   -2.1466371 0.00010686518 
 3012000    0.7774305   -4.1766312   0.53215802   -2.5755063 0.00013053343 
 3013000   0.94660962   -3.8470797   0.30817955    -2.237312 -0.00011383355 
 3014000    1.0173877   -4.3801139    0.2359791   -2.7452267 -7.357719e-05 
 3015000   0.98938713    -4.017879    0.4560757    -2.201396 -2.6460584e-05 
 3016000    1.2946184   -3.9492362   0.38428273   -1.7848532 4.0134247e-06 
 3017000    1.0873165   -3.9971143   0.26813069   -2.2339234 0.00015931419 
 3018000   0.81776356   -3.9999457   0.42765702   -2.4478638 0.00012685314 
 3019000    1.0030199   -4.2723011   0.32511166   -2.5680371 -0.00018296927 
 3020000    0.9646331   -4.0877672   0.27154239   -2.4898543 6.4152538e-05 
 3021000    1.1989415   -4.1002972   0.21575911   -2.2359935 0.00058936974 
 3022000   0.51620264   -3.9483894   0.34558011   -2.8930306 -8.5015444e-06 
 3023000    0.8513777   -4.1209702    0.3768752   -2.5734507 -0.00024123625 
 3024000   0.91473426   -3.8687422    0.3899677   -2.2210149 -0.00038413617 
 3025000    1.0616136   -4.0633961   0.28559898   -2.3180784 9.7057349e-05 
 3026000   0.94350048   -4.1187013   0.15170357   -2.6696846 9.8912001e-05 
 3027000   0.76722766   -4.2928314   0.35784967   -2.8800437 -0.0003503231 
 3028000     1.042346   -4.0499541   0.75621122   -1.8605171 -0.0002141364 
 3029000    1.0567471   -3.6755129   0.48845942   -1.7340262 0.00014472719 
 3030000   0.57114522   -3.5427158   0.46451657   -2.2928745 6.1079331e-05 
 3031000   0.83982888   -4.4244721   0.45342329   -2.8162841 -5.210958e-05 
 3032000    1.0190407    -4.170587    0.6813047   -2.0881014 0.00012967119 
 3033000     1.290918   -4.1933715   0.20677477   -2.2115845 -2.3363392e-07 
 3034000    1.3179716   -3.5335361   0.53000897   -1.1913161 -2.7868181e-05 
 3035000   0.86290054   -3.9549375   0.57335046   -2.1950988 0.00012298908 
 3036000    1.2355159   -4.0103756   0.51611913   -1.7954222 -0.00025934925 
 3037000   0.60582079   -3.9372589   0.39637453   -2.7078808 6.5720837e-05 
 3038000   0.97451992   -4.1475493   0.45538373   -2.3522007 -0.0001612587 
 3039000    1.6122146   -4.3112825    0.4713811   -1.6231064 3.6462382e-05 
 3040000   0.99858495   -4.1072049   0.55111649   -2.1830341 -0.00030652996 
 3041000    1.0150534   -4.1215379    0.5184141   -2.2074254 0.00040035314 
 3042000    1.5084575   -3.4038742   0.57767639   -0.7520687 0.00061974563 
 3043000   0.94426182   -4.1083493   0.50106592   -2.3089234 4.216941e-05 
 3044000    1.0857631   -3.6361318   0.37464293   -1.7685646 6.7145738e-05 
 3045000    1.2320154   -3.8916735   0.66898545   -1.5286668 -0.00019236747 
 3046000   0.87616661   -4.0581788   0.50788316   -2.3455665 -0.00014591597 
 3047000   0.70703521   -4.2435327   0.53784935   -2.7335099 -0.00014288347 
 3048000   0.92608651   -3.8954418   0.80818967   -1.8138832 -0.00019802325 
 3049000   0.89888799   -4.1669327   0.36625857   -2.5647031 -0.00043498801 
 3050000   0.98017145   -3.5759618   0.19671227   -2.0315138 9.7739852e-05 
 3051000   0.93580267   -4.0521289   0.40193244   -2.3634678 -0.00013796232 
 3052000   0.79587237   -3.5987236   0.29861062   -2.2057885 0.0001835133 
 3053000    1.0466613   -3.9096968   0.51331636   -1.9572211 3.0940548e-06 
 3054000    1.0082291   -3.9868214   0.52352301   -2.0769834 9.5347457e-05 
 3055000    1.2546382   -4.1667589   0.26622308   -2.1754082 -2.452346e-05 
 3056000    1.2205716   -3.6812148   0.26311211   -1.7398167 0.00016122667 
 3057000    1.0485989   -4.4052373   0.47905635   -2.4843574 -0.00017909625 
 3058000    1.4218071    -3.817753   0.30629816     -1.55647 5.0724775e-05 
 3059000    1.2764717   -4.2913386   0.31360804    -2.222582 6.8680188e-05 
 3060000     1.021543   -3.9448505   0.25919076   -2.2810381 0.00012264923 
 3061000   0.89685421   -4.2281366   0.56159354   -2.4333685 -0.00013997434 
 3062000    1.1626375    -4.128385   0.46522279   -2.0645356 0.00010161413 
 3063000   0.91094676   -4.0632901   0.19615011   -2.6145882 6.8717545e-05 
 3064000   0.87184595   -3.3687042    0.6796542   -1.4902618 -7.0845575e-05 
 3065000   0.79749976   -3.8549881   0.39489786   -2.3635281 0.00030169526 
 3066000    1.6719983   -4.1309907   0.44594121   -1.3860519 -3.8671652e-05 
 3067000   0.68176861    -4.269008   0.19534199   -3.1362342 -3.5995686e-05 
 3068000    1.3048908   -3.8801058   0.29045298    -1.795428 -0.00013871499 
 3069000   0.76953624   -4.0955901   0.32322997   -2.7142478 6.2319937e-05 
 3070000   0.89351777   -3.5106461   0.29351059   -1.9885486 -0.00030946801 
 3071000    1.0115127   -4.0188319   0.18274696   -2.4452549 -5.7515018e-05 
 3072000   0.80137568   -3.9312888   0.90402705   -1.9253702 -0.00057185185 
 3073000    1.1039247   -3.7810938   0.33059299   -1.9326044 3.6409609e-05 
 3074000    1.0182416   -3.8319392    0.1396996   -2.2921574 0.00016570114 
 3075000    1.0127207   -4.1620386   0.57827582   -2.1912719 -5.2321491e-05 
 3076000    1.0204732   -3.3074668   0.60871627   -1.2955999 -0.00033343536 
 3077000    1.0077804    -3.720141   0.36409656   -1.9703463 0.00010922222 
 3078000    1.0534874   -4.2489353    0.4188553   -2.3815348 -0.00012943561 
 3079000    1.6268457   -3.2515484   0.78753532  -0.22710026 -0.00014275914 
 3080000   0.99923546   -3.4835986   0.54607542   -1.5635744 -0.00040494389 
 3081000   0.71599642   -4.4313617   0.76385758   -2.6830091 -0.00010270211 
 3082000    1.0327808   -2.6837858   0.64751744  -0.61619481 -0.00011279679 
 3083000   0.98558965   -3.3653911    0.2883058   -1.7218995 0.00012173447 
 3084000   0.98490833    -3.716528   0.87039425   -1.4918848 0.00019023506 
 3085000   0.91446269   -4.2602184   0.82175496   -2.1810772 -0.00017828181 
 3086000   0.85425027   -3.9189551   0.41959906   -2.3247619 0.00013130197 
 3087000    0.7170898   -3.8581771   0.66899492   -2.2031837 0.00015252433 
 3088000   0.83652412   -4.0622367   0.44098434   -2.4710317 0.00023318081 
 3089000   0.76622062   -3.4880517   0.43938316   -1.9951152 -9.3136139e-05 
 3090000   0.99606715   -4.1322093   0.28382981   -2.4787872 0.00024215931 
 3091000   0.94706531   -3.7978247   0.83270732   -1.6629026 -0.00016316721 
 3092000   0.61158855   -4.1100717   0.56653788   -2.7025995 -0.00026171065 
 3093000   0.89618967   -4.1107149   0.37860838   -2.4998458 -5.5245464e-05 
 3094000   0.78199353   -3.7622213   0.44620531   -2.2407749 0.00015722588 
 3095000    1.0552337   -3.9652902   0.28418176   -2.2301621 -0.00016638562 
 3096000    1.0268531   -4.0295033   0.50947649   -2.1081038 -2.7833743e-06 
 3097000    0.7924403   -3.4401345   0.46433812    -1.886191 0.00040212565 
 3098000    0.8742156   -4.1334791   0.26786078   -2.6635719 -2.2735502e-05 
 3099000    1.2594414   -3.9789071   0.48762009   -1.7595552 -6.2873577e-05 
 3100000    1.2530993   -4.0519608   0.63420171   -1.6947475 0.0002595571 
 3101000    1.1177989   -3.8112172    0.7146947    -1.559549 0.0002604042 
 3102000    1.6086595   -4.2449825   0.65258455   -1.3804912 -0.00011071484 
 3103000   0.98652212   -4.0766018   0.75856092    -1.961573 -0.00016332932 
 3104000   0.69910991   -3.4989266   0.34887826   -2.1887722 0.0006002856 
 3105000    1.0669664   -3.6681737   0.28336362   -1.9177313 0.00046333254 
 3106000    1.2329123   -4.2352088   0.43444305   -2.1055113 0.00025326562 
 3107000    1.1532791   -3.6036739    1.2903421  -0.72757312 -0.0004671566 
 3108000    1.3954754   -4.0079007   0.39746071   -1.6916613 -9.6771681e-05 
 3109000    1.1314973   -4.2533879   0.75736761   -1.9402115 -0.00037370265 
 3110000     1.337376   -3.4684715   0.53221622   -1.0973633 0.00041939259 
 3111000    1.1092815   -4.0483731   0.34441869   -2.1786923 0.0006081576 
 3112000   0.60853122   -3.4623776   0.37730165   -2.2483455 -9.5070445e-06 
 3113000    1.1404759   -3.9848888   0.27450541   -2.1422291 -5.4321751e-05 
 3114000    1.5608442   -3.7724991   0.40108266   -1.2252557 -5.9746469e-06 
 3115000   0.81981017   -2.9377931   0.52093746   -1.2896166 0.00032518685 
 3116000    1.0198804    -3.987195   0.41005274   -2.1748067 -0.00017021436 
 3117000    1.3554473   -3.9656406   0.20776052     -1.89414 7.7921991e-05 
 3118000   0.71985669   -3.8301038   0.53011549   -2.3101854 0.00020428789 
 3119000    1.1914717   -3.7535162   0.32463719   -1.7906054 0.0002260987 
 3120000    1.0094164   -3.7087283   0.54659045   -1.7741903 -0.00030234437 
 3121000   0.89609708   -4.3161849    0.8903801   -2.1936714 -0.00021209891 
 3122000    1.5931203   -3.9102924   0.62690346   -1.0928485 -4.4597315e-05 
 3123000   0.81609343   -3.7638743   0.59275485    -2.048991 0.0002005627 
 3124000    0.9062161   -3.8780357   0.34259276   -2.2893958 0.00026329503 
 3125000    1.2011946   -3.7265779   0.54904347   -1.5258919 -3.8459819e-05 
 3126000   0.64822225   -3.8029691   0.36112788   -2.5505356 2.8527179e-05 
 3127000   0.82053376   -4.1824053   0.59737662   -2.4567947 0.00033371136 
 3128000    1.1445135     -3.38577    0.4463668   -1.3656971 -0.00022065605 
 3129000   0.76349922   -3.9129018    0.7490079   -2.1140825 -0.00018547666 
 3130000   0.86709302   -3.8115383   0.98783593   -1.6314494 -0.00060264826 
 3131000   0.99725532   -4.3534709   0.81951121   -2.1627337 5.7424438e-05 
 3132000    1.1835701     -4.04925   0.49051219   -1.9313289 -0.00018872701 
 3133000   0.99516788   -4.2177111   0.54890388   -2.3004513 7.1829076e-05 
 3134000    1.0920378    -4.118304   0.78679812   -1.8299539 -0.00037551854 
 3135000   0.66083378    -3.697108   0.36925733   -2.4192043 0.00023774808 
 3136000    1.1472431   -4.1965564   0.73186017    -1.887237 -0.00025560524 
 3137000    1.4302764   -3.7578417   0.56475708   -1.2264546 -0.00010731559 
 3138000    1.1884796    -4.067179   0.34824049   -2.0847791 0.00028018114 
 3139000    0.8887299   -3.8020901   0.35177484   -2.2283116 -1.0838043e-05 
 3140000    1.1699646   -4.1731987   0.80939734   -1.7551001 -2.0723791e-05 
 3141000   0.85168834   -3.3019596   0.38929688   -1.7415912 -0.00035840421 
 3142000    1.1529328   -4.1507584   0.65633654   -1.9091393 -0.00018749706 
 3143000   0.91084846   -3.3703254    0.4289931   -1.6889157 -0.00021589089 
 3144000    1.0615987    -4.210755   0.31405295   -2.4370038 0.00029078173 
 3145000    1.2984274   -3.9742865    0.2555829   -1.9333659 5.0039005e-06 
 3146000    1.6246738   -3.9439211   0.43177343   -1.2782212 0.00030788889 
 3147000    1.3816535   -4.1270542   0.54724873    -1.680032 -0.00020140385 
 3148000   0.53089484   -4.0029651   0.42723162   -2.8457531 -8.6920277e-05 
 3149000   0.94050637   -4.2772413   0.89528253   -2.0887625 -5.3059454e-05 
 3150000   0.96493216   -4.1654126   0.41596331   -2.4226676 3.9502453e-05 
 3151000    1.7884172   -3.8509557   0.35901065   -1.0328714 -0.00017052841 
 3152000   0.83712186   -4.0287862   0.41639233   -2.4613514 4.4190596e-05 
 3153000    1.1124291   -3.9248596   0.48790372   -1.9073659 0.00054578719 
 3154000    1.3300614   -4.2863906   0.46068892   -1.9968673 9.8387948e-05 
 3155000    1.0650247   -3.7299606   0.58038634   -1.6851653 -0.00033005048 
 3156000   0.66146624   -4.0607509   0.54070203   -2.6105328 2.8314566e-05 
 3157000    1.1586263   -4.0478113   0.32260342   -2.1320967 0.00031604626 
 3158000    1.2849275   -4.2374691   0.48796969   -1.9827241 -0.00029625101 
 3159000    1.0540818   -4.3093235   0.41388312   -2.4460779 4.0444697e-05 
 3160000   0.78258694   -3.7351496    0.5826998   -2.0763928 -0.00011724081 
 3161000     1.243427   -4.2068634   0.38995079   -2.1072005 -0.00012228371 
 3162000    0.8075765   -4.0408574   0.28588282   -2.6445569 0.00057942719 
 3163000   0.82270478   -4.1173316   0.57562748   -2.4104851 1.5904726e-05 
 3164000    1.0756964   -3.9358623   0.64471222   -1.8120675 -0.00015567782 
 3165000   0.85851006   -4.2092136   0.58609905   -2.4426632 -6.23355e-05 
 3166000   0.88878573   -4.1459983   0.61460185    -2.309316 -8.9579237e-06 
 3167000   0.86418835   -4.1519241   0.36823581   -2.5954293 8.9488492e-05 
 3168000    1.0660319   -3.3903619   0.36010666   -1.5644615 0.00049481583 
 3169000    1.5574663   -4.2246374   0.57776361   -1.5053576 2.3254131e-05 
 3170000    1.0597554   -3.5318433   0.46990164   -1.6047779 0.00043945199 
 3171000    1.1594595   -4.3827144   0.47775277   -2.3107049 -3.2029127e-05 
 3172000    1.1211595   -3.3714905   0.45972495   -1.3701712 0.00044884782 
 3173000   0.79773025   -4.1835754   0.27495921   -2.8117371 0.00017909901 
 3174000   0.96609339   -3.6557193   0.41551454   -1.9118264 0.00039225839 
 3175000   0.65419884   -3.9866057   0.16345063   -2.9236317 0.00012997326 
 3176000    1.0148535   -3.1375123   0.61110782   -1.1309809 0.00014508681 
 3177000    1.0505832   -3.9090781   0.27827177   -2.1862544 8.7426293e-05 
 3178000   0.88563828   -3.5128933   0.46127463    -1.833866 -0.00031972964 
 3179000    1.2485366   -4.3203366   0.57430494   -2.0292939 6.3149126e-05 
 3180000    1.1359099   -3.7181608   0.51002287   -1.6462619 0.00014757761 
 3181000   0.57980458   -4.2651721   0.47961132   -2.9883294 -4.2560547e-05 
 3182000   0.73467053   -3.7168714    0.9316513   -1.7750481 -0.00043914086 
 3183000   0.63368965   -4.2169033   0.55386896    -2.791711 0.00022327784 
 3184000    1.3936149   -4.3785966   0.50596945   -1.9564067 -0.00036578365 
 3185000   0.85422747   -4.1623464   0.47800585   -2.5097778 -0.00015900821 
 3186000    1.1136939   -4.0023169   0.18973272   -2.2812551 0.00032716885 
 3187000   0.69616768   -4.0439483   0.39657304   -2.6901447 0.00021276271 
 3188000    1.2823535     -4.11841   0.22383621   -2.1313378 -3.3962439e-05 
 3189000   0.71123725   -3.5395909   0.51441176    -2.047228 0.00019878901 
 3190000     1.115094   -3.3579268   0.43309119   -1.3915814 7.4800556e-05 
 3191000    1.3722779   -3.8460473   0.18963911   -1.7695261 0.00037204037 
 3192000   0.73459426   -3.6445358   0.27153034   -2.3629383 -0.00042317231 
 3193000   0.88856487   -4.0961865   0.59858469   -2.2758251 0.00045693339 
 3194000   0.85520167   -3.6994924    0.3339892   -2.1896009 -0.00026803643 
 3195000   0.74902184   -4.0072328   0.33563736   -2.6416904 0.00016566676 
 3196000   0.54133859    -3.892806   0.25266695   -2.8957984 0.0004528578 
 3197000    1.0492244   -3.7061888    0.3802634   -1.8832418 1.8253426e-05 
 3198000   0.79683906   -4.0047134   0.32875161    -2.580308 0.00014815382 
 3199000    1.0099055    -4.236868   0.65631555   -2.1919324 0.00033386452 
 3200000    1.1961933   -3.7069851    0.1664723   -1.8957469 0.00025285647 
 3201000   0.82704468   -4.0744477   0.50682087   -2.4304404 0.00010149202 
 3202000   0.88893458   -4.2740516   0.71077691   -2.3409896 -0.00018215815 
 3203000    1.2350202   -4.0004167   0.53572289    -1.766541 0.00037913666 
 3204000   0.65941995   -4.0411939   0.27334679   -2.8611447 0.00020095686 
 3205000    1.1428675   -3.7337771   0.18171305   -1.9806213 -1.064215e-07 
 3206000    0.8091878   -4.0508818   0.39832907   -2.5399195 -0.0001367377 
 3207000    1.1805576   -4.1894166   0.21380224   -2.3523476 0.00045509188 
 3208000    1.1575481   -3.7221597   0.83081035   -1.2997207 -0.00033611962 
 3209000   0.54837107   -3.5969921   0.49547869   -2.3475032 0.00010692438 
 3210000   0.93428604   -4.0456127   0.59158933     -2.16938 -0.00033033149 
 3211000     1.467797    -3.278164   0.32406419  -0.93587894 -0.0002500493 
 3212000    1.0612718    -3.662848   0.43149897   -1.7721004 5.1283001e-05 
 3213000   0.83645493   -4.0152396   0.36230408     -2.50281 0.00047327187 
 3214000   0.79143482   -3.6470318   0.51104547   -2.0477634 -9.9077432e-05 
 3215000    0.8576448   -4.0754559   0.26708211   -2.6291122 0.00022178608 
 3216000    1.2698266   -4.0673193   0.28766253   -2.0336452 0.00014497089 
 3217000   0.99937145   -3.8184599   0.43912622   -2.0051979 -0.00010763224 
 3218000   0.85638141   -3.8024678   0.34229954   -2.2826438 -2.7195876e-05 
 3219000    1.2655565    -4.093766   0.36580459   -1.9878212 -2.3258067e-06 
 3220000    1.3431975   -3.5262398   0.47850838   -1.2008349 -0.0001738357 
 3221000   0.56448206   -3.1165244   0.56546326   -1.7748983 0.00014695156 
 3222000   0.77761404   -3.1887917   0.35173586   -1.7678365 0.00038432251 
 3223000   0.99241644   -4.1276249   0.68183544   -2.0812169 0.00017848832 
 3224000   0.86042181    -4.007425   0.33144002    -2.492905 0.00048463723 
 3225000   0.66414227   -3.7560477   0.23480765   -2.6080444 6.4014893e-06 
 3226000   0.95862345   -3.7413245   0.34313713   -2.0800801 -4.6908451e-05 
 3227000   0.96467277    -4.057337   0.37556633   -2.3553456 -0.00022990777 
 3228000    1.4033707   -3.7821372   0.67152894   -1.1809736 7.6828796e-05 
 3229000    1.1033522   -4.2984932   0.35752146   -2.4238624 0.00020805405 
 3230000   0.81427791   -3.7961171   0.26798329   -2.4085017 -4.7755848e-05 
 3231000   0.94582768   -4.0190086   0.64507212   -2.0734234 0.00012718372 
 3232000    1.0985094   -3.4941377   0.34663688   -1.6370504 -8.6705128e-05 
 3233000    1.2370216   -4.0695319   0.36134922    -2.007278 0.00013589016 
 3234000    1.1095476    -4.038158   0.41038748   -2.1021425 -9.6629084e-05 
 3235000    1.6102351   -4.3896585   0.31925746   -1.8563277 0.00031150431 
 3236000   0.61161497   -4.5067111   0.55367052     -3.11207 -0.00038507786 
 3237000    1.6796914   -4.0077705   0.22953528   -1.4686596 0.00021595316 
 3238000    1.2698915   -3.9146335   0.34487176    -1.823661 3.7752632e-05 
 3239000    1.2868617   -3.7681161   0.38506072   -1.6136205 -1.7118719e-06 
 3240000   0.91491894   -3.5816872   0.34502626   -1.9786474 -8.9452619e-05 
 3241000   0.85559569   -3.0659069   0.32212012   -1.5673427 -0.00019849016 
 3242000    1.0314856   -4.2561256   0.49265153   -2.3451814 -4.7713053e-05 
 3243000   0.94166291    -4.286353   0.26296585   -2.7286007 0.00010330307 
 3244000    1.0316388   -3.6184592   0.30070468   -1.8992511 0.00023227646 
 3245000   0.85921512   -3.7756964    0.3808492   -2.2134265 -0.00017664672 
 3246000    1.3036655   -3.6514108   0.37060811   -1.4882626 -4.0726216e-05 
 3247000   0.93140103   -4.4173915    0.3292774   -2.8074377 0.00027638501 
 3248000   0.79944438   -3.3972487   0.30259722   -1.9954155 0.00010795097 
 3249000   0.78334542   -3.8780325   0.34764845   -2.4532841 2.4480899e-05 
 3250000    1.2536958   -4.0524259   0.20460391   -2.1239903 0.00043299219 
 3251000    1.1135651     -4.01533   0.47666918   -2.0075088 -3.9030191e-05 
 3252000   0.68740161   -3.9786976   0.88084511   -2.1526753 0.00049168876 
 3253000   0.60559057   -3.6526319   0.37267854   -2.4472663 -0.0003239074 
 3254000    1.3735535   -4.2148412   0.52834975   -1.7978553 0.0002694508 
 3255000    0.7650659   -4.0013349   0.32980496   -2.6195644 -0.00027063436 
 3256000     1.355945   -3.5915265   0.48392619   -1.2431759 5.9456964e-05 
 3257000    1.1334515    -4.108543   0.96637094   -1.5836762 0.00032150097 
 3258000   0.55338277   -4.1646104   0.35443202   -3.0492771 4.3297963e-05 
 3259000    1.0651828   -4.0681298    0.5489408   -2.0545627 -0.00028942313 
 3260000   0.91892728   -3.3715161   0.65110262   -1.4568885 0.00015147173 
 3261000   0.90386221   -4.1162292    0.5718599   -2.3015587 -1.8515423e-05 
 3262000    1.2205646   -3.8841346   0.38607875   -1.8197795 -0.00027824135 
 3263000    1.2963318   -3.9351407   0.51836026   -1.6343242 0.00011938083 
 3264000    0.9114262   -4.0097581   0.41384477   -2.3427023 0.00056669314 
 3265000   0.66726259    -3.279317   0.56245908   -1.7993718 3.3101991e-05 
 3266000   0.97924328   -4.1527687   0.43475434   -2.3715549 -1.2229742e-05 
 3267000     1.145168    -3.948347   0.38621892   -1.9875221 7.9421511e-05 
 3268000   0.70441925   -3.4356105   0.55373862   -1.9132954 -0.00025504009 
 3269000   0.73021835   -4.0469431   0.37154516   -2.6713477 8.1465208e-05 
 3270000   0.74100609   -3.8286345   0.70382892   -2.1059222 -0.00017994988 
 3271000   0.86802689   -3.7567789   0.24352327   -2.3197187 -2.9918121e-05 
 3272000   0.94534261   -3.6762205   0.67332181   -1.7030526 0.00082871178 
 3273000    1.0108572    -4.167698   0.37513953   -2.4026298 -2.5851112e-05 
 3274000   0.91549342   -3.7553846    0.3582176   -2.1383635 0.00013837179 
 3275000   0.63478346   -4.3279837   0.28665133   -3.1685051 -0.00018684949 
 3276000   0.97454522   -4.0975921   0.99753663   -1.7600558 -0.00043408784 
 3277000   0.74244127   -4.0241825   0.60046725   -2.4028585 -0.00015351597 
 3278000    0.9839425   -3.6832662    0.2964487   -2.0338966 0.00042860974 
 3279000    0.8178823   -3.6061897   0.44506793   -2.0365336 4.4290863e-05 
 3280000   0.87283563   -4.2437761   0.32022303   -2.7234041 0.00021187339 
 3281000   0.63130726   -4.0076797   0.40379151   -2.7358407 -0.00032141813 
 3282000    1.1576528   -3.4219231   0.64527793   -1.1848725 0.00035994618 
 3283000   0.97413218   -3.8761929   0.43549074   -2.1012704 -1.4892162e-06 
 3284000    1.0462718   -4.3321874   0.33060449   -2.5629592 -0.00032170219 
 3285000    1.2553792   -3.9342998   0.21445956   -1.9936938 7.481123e-05 
 3286000   0.94397832   -3.9007713   0.22581642   -2.3769847 -4.7406041e-05 
 3287000    1.1683338   -4.1633964    0.5312953   -2.0256422 0.00022833446 
 3288000    0.8084274   -4.3058762   0.23814498   -2.9561436 -0.00015427388 
 3289000    1.2688651   -4.0528967   0.79842772   -1.5097795 3.7542319e-05 
 3290000   0.62648058   -4.2282924   0.54481512   -2.8220664 0.00013282928 
 3291000   0.90391439   -3.6685635   0.38752033   -2.0381609 0.00031214397 
 3292000    1.0618704   -4.3213486   0.38868732   -2.4725895 9.9980691e-05 
 3293000   0.90740495    -3.572935   0.66773237   -1.6575209 -6.7968943e-05 
 3294000   0.61916051   -3.7336893    0.2858104   -2.5965332 0.00016840452 
 3295000    1.0263134   -3.8485483   0.42477894   -2.0125884 -0.00020851779 
 3296000   0.83183918   -4.1879236   0.31928214   -2.7248626 0.00028566169 
 3297000    1.2377069   -4.1368939   0.43387681   -2.0011701 -0.00032295874 
 3298000    1.1722809   -3.1952395   0.42041221    -1.162941 8.9007396e-05 
 3299000     1.105368   -4.1266091   0.82918465   -1.7775435 0.00025553658 
 3300000   0.91898572   -4.1145512   0.45739809   -2.3935477 -0.00018678052 
 3301000   0.94020666   -3.8870564     0.306961   -2.2873112 -0.00011610309 
 3302000    1.2262112   -4.0451504   0.34805189   -2.0110581 0.00011772783 
 3303000    1.1813093    -3.285072    0.3685762   -1.2921955 0.00030772894 
 3304000   0.95835054   -4.1277603   0.24672221   -2.5633061 -3.8209254e-05 
 3305000   0.62169734   -3.7262273   0.73956866   -2.1318248 -0.00029734731 
 3306000   0.82665174   -4.2016935   0.22366736     -2.84138 -1.2761021e-05 
 3307000     1.149853   -4.2454976   0.42687924   -2.2375706 -0.00023484019 
 3308000    1.6146412   -3.7057023    0.6652061  -0.82036462 5.3492353e-05 
 3309000   0.81037882   -4.1791806   0.58498286   -2.4799268 0.00021544152 
 3310000   0.93811414   -3.6250761    0.6008825   -1.7342866 -2.4776069e-05 
 3311000   0.78891605   -3.6386074   0.59027502   -1.9635728 -9.3500188e-05 
 3312000    1.3273159   -3.5755623    0.2320606   -1.5184423  8.46622e-05 
 3313000   0.89260716   -3.6938636    0.6426602   -1.8238685 0.00016292964 
 3314000   0.70569847    -3.988231   0.51862869   -2.4992669 -0.00012241701 
 3315000    1.2426623    -3.736856    0.7521387   -1.2760567 -4.9181789e-05 
 3316000   0.63875649   -4.0806745   0.78046089   -2.4219234 0.00018362859 
 3317000   0.94492747   -3.7405951   0.66730547   -1.7740144 6.6015083e-05 
 3318000    1.5397886   -3.5147252   0.43480774  -0.96270813 0.00043181931 
 3319000    1.0658751   -3.6275049   0.80398728   -1.3579393 -2.5000988e-05 
 3320000    0.8753113   -4.0875713   0.66731531   -2.2167029 -0.00046104645 
 3321000    1.0523653   -3.7946634    0.6091088   -1.7385523 -0.00035557133 
 3322000   0.83225386   -3.6373393   0.47340637   -2.0195839 3.2192611e-05 
 3323000   0.55082211   -3.1674013   0.31765067   -2.0923703 1.9993447e-05 
 3324000   0.89262904   -3.8347635   0.73478388   -1.8726147 -0.00032126305 
 3325000   0.94550246   -4.1929746   0.43528631   -2.4576224 -1.4195922e-05 
 3326000    1.1674459   -3.5143425   0.50788367   -1.4012207 0.00012835858 
 3327000   0.99585084   -3.9252874   0.53668156    -2.019311 0.00018000396 
 3328000    1.0655266   -3.9969334   0.27376565   -2.2580687 0.00015299971 
 3329000     1.067773   -3.6454373   0.89634205   -1.2809074 -0.00030242581 
 3330000    1.0550818   -2.8237738   0.26288355   -1.1101527 -3.6857292e-06 
 3331000   0.57405824   -3.4311726   0.58681673   -2.0550258 -0.00017571867 
 3332000    1.0735987   -4.1967452   0.43148478   -2.2890622 0.00015567297 
 3333000   0.81019285   -3.4530006   0.47409811   -1.8648873 -0.00028711623 
 3334000   0.62279518   -3.8485373   0.42456923   -2.5676247 0.00016793888 
 3335000    1.2409041   -4.0526855   0.39683926   -1.9496031 0.00018885786 
 3336000   0.96230142   -3.6973173   0.21938298   -2.1547699 8.1095007e-05 
 3337000     1.087233   -3.9509184   0.41845874   -2.0375143 0.00013278973 
 3338000   0.58781757   -4.2073717   0.70864097   -2.6904815 -0.00043018711 
 3339000   0.80037844   -3.6601604    0.3541901   -2.2054499 0.00010927482 
 3340000   0.96449008   -4.1943846   0.19420973    -2.674001  1.58179e-05 
 3341000    1.0371245   -3.6168397   0.83084883   -1.3599446 0.00013500718 
 3342000    1.1193712   -4.0404222   0.39409555   -2.1071913 0.00023041605 
 3343000   0.91749382   -3.2171744   0.25042166   -1.7051988 -0.00018075221 
 3344000   0.80370881   -3.7748039   0.50539266   -2.1643116 -7.2967455e-05 
 3345000     1.030085   -3.9358337   0.49640836   -2.0230585 0.00013130294 
 3346000    1.2920129   -3.8660037   0.72592945   -1.3635566 -0.00041093009 
 3347000   0.76860264   -3.8846075    0.7631328   -2.0646461 -4.941875e-05 
 3348000   0.85828518   -4.0432018   0.52118522   -2.3418744 4.2863477e-05 
 3349000    1.0485112   -3.4922132   0.33128403   -1.7192263 -6.8859966e-05 
 3350000     1.277423   -4.2564931   0.64318168   -1.8568548 0.00011181568 
 3351000    1.3610149   -3.8715469    0.6161156   -1.3840358 0.00015369484 
 3352000      1.44166    -4.162158   0.84661318   -1.3332622 -0.0003808082 
 3353000   0.85818166   -4.0307863    0.4410184   -2.4097681 -9.8808769e-05 
 3354000    1.2806819   -4.1943263   0.29305228   -2.1403364 0.00016105286 
 3355000   0.66906947   -4.3875588   0.53013506   -2.9374532 6.873593e-05 
 3356000    1.2164037   -3.7491957    0.6264386    -1.450202 0.0001063395 
 3357000    1.6870339   -4.2864058     0.303184   -1.6635502 5.5959259e-05 
 3358000   0.92127557    -3.621356   0.56450031   -1.7901018 -0.00017158577 
 3359000     1.103354    -4.291395   0.37657656   -2.3977067 -0.00022236112 
 3360000    1.5838134   -4.0114923   0.24586319   -1.5878858 2.2649054e-05 
 3361000   0.73492258   -3.7609066   0.17689835   -2.5734897 0.00050759547 
 3362000    0.9425641   -4.0471572   0.60164622   -2.1494854 -1.990585e-05 
 3363000     1.410528   -4.0613171   0.39346738   -1.7283737 0.0002504898 
 3364000   0.61442031   -3.7698487   0.91651206   -2.0085087 -0.00050639321 
 3365000   0.87237231   -4.3146596   0.34094178   -2.7742059 -0.00017943018 
 3366000   0.97649957   -3.9246473   0.33056715   -2.2513932 8.4099644e-05 
 3367000   0.94564129   -4.3372317   0.39517907   -2.6417959 0.00015971252 
 3368000   0.86967621   -3.1637385   0.27177146   -1.6961622 0.00020031101 
 3369000   0.89275341   -4.1356837   0.47288473    -2.435263 0.00015427983 
 3370000    1.1644757   -3.7922075   0.20109903   -1.9899544 -0.00012951157 
 3371000   0.75154582   -4.2858786   0.18289076   -3.0696123 -1.891409e-06 
 3372000   0.65998849   -3.5134786    0.6983997   -1.9075947 -0.00034091521 
 3373000    1.1999999   -3.4573927   0.40193318   -1.4054597 -0.0001443221 
 3374000   0.88227053   -3.8284588   0.36610238   -2.2492345 3.6783429e-06 
 3375000    1.0373717   -4.1808119   0.69256931   -2.0618564 0.00014551808 
 3376000   0.46571723   -3.3642481   0.74443432   -1.9794526 -0.00013198342 
 3377000   0.86080573   -4.0734008   0.35173575   -2.5380571 0.00022215471 
 3378000    1.0518177   -3.9334982   0.56391793   -1.9233308 0.00011527662 
 3379000   0.97682448   -3.8911794   0.32233188   -2.2257139 0.00033138038 
 3380000    1.3805753   -3.6519304   0.27152569   -1.4821137 0.00026243057 
 3381000   0.94405243    -4.173426   0.57668611   -2.2986678 -0.00011604587 
 3382000    1.1657449   -3.6494044   0.23155575   -1.8149493 0.00013736809 
 3383000   0.92328209   -3.7357345   0.43160443   -2.0346172 -1.8605002e-06 
 3384000    1.0157418   -4.3451858   0.39349225   -2.5550486 -2.8109176e-05 
 3385000   0.90295996   -3.9345633   0.58382948   -2.1091639 -0.00023866338 
 3386000   0.45734955   -4.2656264   0.54646822   -3.0903026 -9.3215539e-05 
 3387000    1.2694271   -3.6161041   0.91527117  -0.95537072 -0.00015670756 
 3388000    0.9620733   -3.8257432    0.2799845   -2.2229079 0.00015837736 
 3389000   0.90612215   -4.0728346   0.35990746   -2.4670091 -0.00011335649 
 3390000   0.74948643   -3.7914935   0.76709062    -1.993859 -2.7326194e-05 
 3391000     0.907943     -4.29488   0.75149222   -2.2949662 -6.0233645e-05 
 3392000    1.0616459   -3.6385407   0.56914888   -1.6096287 0.00031831402 
 3393000   0.60940437   -3.7782386    0.6744085   -2.2658991 0.00039631401 
 3394000   0.92649725   -4.1871194   0.38941585   -2.5237698 0.00017252077 
 3395000   0.52406052   -3.7289738   0.26684451   -2.7415461 -0.00010295497 
 3396000    0.8948682   -2.9703452   0.38603466   -1.3538667 9.7864597e-05 
 3397000    1.4673167   -4.0596151   0.39510705   -1.6469476 9.0578977e-05 
 3398000   0.74413053   -4.3764443   0.41530627   -2.9379586 0.00013443632 
 3399000    1.0568028   -3.9929138   0.41447039   -2.1253396 -0.00013758392 
 3400000    1.3858245   -4.2612122   0.50585188   -1.8498516 0.00014704457 
 3401000     0.802233   -3.9719714   0.49688449   -2.3720165 -0.00021192331 
 3402000   0.90791385   -4.0212823   0.28149296   -2.4914079 -6.509471e-05 
 3403000    1.1773688   -4.2499168   0.65026827   -1.9807664 0.00011017844 
 3404000   0.57559618   -3.9225525   0.44705484   -2.6840529 7.1895551e-06 
 3405000   0.85970098   -3.9401107   0.65209179   -2.1059301 3.1817652e-05 
 3406000   0.75331858   -4.2026037   0.52890388   -2.6378867 2.5050904e-05 
 3407000    1.2098806   -4.3413684   0.28883308   -2.3889495 2.4564481e-05 
 3408000   0.66994712   -4.0358847   0.28189654   -2.8328109 0.00025222518 
 3409000   0.98712782    -3.910513   0.24412057   -2.3090917 0.00036226044 
 3410000    1.2505288   -4.0042815   0.52351833    -1.761286 -0.0001643391 
 3411000   0.99025462   -3.9367264   0.47720521    -2.097921 -0.00021719142 
 3412000    1.2132214   -3.3976041   0.19974548   -1.5296792 0.00021906622 
 3413000    0.7011291   -3.6324416   0.20632863   -2.4620604 8.1605906e-05 
 3414000    1.1581749   -3.8933504   0.25059576   -2.0502642 0.00023338127 
 3415000    1.2423796   -3.3409932   0.22237516   -1.4103462 0.0001380176 
 3416000    1.0226549   -4.1966074   0.44416477   -2.3462922 0.00011673399 
 3417000   0.60967569   -4.1757666   0.57651097   -2.7609515 -0.00036633587 
 3418000    1.1387623    -3.694817   0.64500179   -1.4840171 0.00010921431 
 3419000    1.7734463   -4.4649663   0.32420527   -1.7022723 7.4055187e-05 
 3420000    1.6471433   -4.1531806   0.75532549   -1.1330331 -0.00037334266 
 3421000   0.87967955   -4.0153654   0.49935158   -2.3064545 -5.9414996e-07 
 3422000   0.84815997   -2.9695511   0.55831355   -1.2450176 0.00023579908 
 3423000     1.428854   -3.7365122   0.39449694    -1.377341 0.00028513438 
 3424000    1.0505891   -3.8359343    0.4835348   -1.9078395 1.6241074e-05 
 3425000    1.6868075   -3.2141062   0.57521089  -0.31953501 -0.00039555179 
 3426000   0.68444661   -3.3514587   0.42129708   -1.9890476 -0.00015785904 
 3427000   0.88984531   -3.9876191   0.82850678    -1.935575 -0.00047873239 
 3428000   0.79955626   -4.1174191   0.43499799   -2.5830312 5.4711508e-05 
 3429000   0.85529215   -3.6531928   0.21927157   -2.2578945 0.00015443065 
 3430000    1.0936707   -3.7825355   0.52066816   -1.7580701 -4.4720273e-05 
 3431000    1.2846504    -4.194506   0.42505541   -2.0030563 0.00030588954 
 3432000   0.77315502   -4.1059882   0.32850626   -2.7143938 -9.595034e-05 
 3433000   0.79114685   -4.1065517    0.1590994   -2.8596253 -1.780513e-05 
 3434000   0.92560327   -3.7339963   0.62835582    -1.832936 -0.00021791202 
 3435000    1.3932433    -3.917283   0.52623965   -1.4753337 -0.00039303913 
 3436000   0.87384732   -3.8041775   0.40706836   -2.1955691 9.837601e-05 
 3437000   0.80482864    -4.404421   0.44139877   -2.8563829 -0.00012520525 
 3438000    1.0750218   -3.8303496   0.38353814   -1.9686565 0.00023097299 
 3439000    1.0775534   -3.7888649   0.55224583   -1.7549832 -0.0002081047 
 3440000   0.88755804   -3.7642409   0.31014863      -2.2337 -0.00016066715 
 3441000    1.1782851   -3.7671988   0.33635146   -1.8107054 0.00031313487 
 3442000   0.79900335   -3.8564244   0.46475491   -2.2930399 0.00010260569 
 3443000   0.76008389   -4.0790785   0.99670209   -2.0372611 -9.203083e-05 
 3444000    0.9516602   -3.2802038   0.61660828   -1.3550628 -0.00014056456 
 3445000   0.77470369   -3.8765544   0.44582097   -2.3655159 -0.00026695453 
 3446000   0.87437196   -4.0313845   0.84089723   -1.9882258 -0.00042762928 
 3447000   0.72862465   -4.2008259   0.28590753   -2.9130595 2.0296525e-05 
 3448000    1.0724216   -3.6310557    0.6475476   -1.5089284 -0.00010758606 
 3449000    1.0191574   -3.9939156   0.38198976   -2.2105844 0.00032794166 
 3450000   0.96717473   -3.8101201   0.22094744   -2.2593074 3.2659184e-05 
 3451000    1.4701666   -3.6618796   0.57615122   -1.0642493 -0.0004292836 
 3452000   0.90951089   -3.8503472    0.1638022   -2.4359675 0.00023497874 
 3453000   0.71697938    -3.579822   0.52990545   -2.0640699 7.5039676e-05 
 3454000   0.93258896   -3.7885077    1.0919892   -1.4142087 -0.00017054994 
 3455000    1.2803661   -3.8366721    0.6477979   -1.4283708 -0.00014052037 
 3456000    1.0312252   -4.1278829   0.27372142   -2.4362269 0.00010067889 
 3457000   0.81141518   -4.3287768   0.53106286    -2.682018 -9.7125964e-05 
 3458000    1.3183325   -3.6385223   0.47328036   -1.3525348 -0.00052742143 
 3459000   0.83755224   -4.0106583   0.27448616   -2.5845378 -3.5198273e-05 
 3460000   0.81358187   -3.8799585   0.39621818   -2.3650653 1.4820241e-06 
 3461000    1.7207539   -3.6036222   0.20530711   -1.0322785 0.00028643417 
 3462000   0.63599136   -3.9536709   0.81838503   -2.2607977 -0.00017470048 
 3463000   0.68917054   -3.7857705    0.4326111   -2.4055499 1.9024632e-06 
 3464000   0.72980855   -3.7867315   0.48225195   -2.3009928 -0.00016891911 
 3465000   0.65865223   -3.4864364   0.46968442   -2.1111052 -0.00018033826 
 3466000    1.3661539   -4.2898088    0.2622822   -2.1490651 0.00015205005 
 3467000    1.3773932   -4.2302162   0.39920405   -1.9370965 0.00022061163 
 3468000   0.73890193   -4.2298358   0.61175323   -2.6020924 0.0001369195 
 3469000    1.1020264   -4.1456704   0.56421115    -2.066173 0.00015507199 
 3470000   0.62937102   -3.4473596   0.88430611   -1.6976683 0.00035276738 
 3471000   0.80938613   -4.0554913   0.51027085   -2.4323145 -0.00014532287 
 3472000   0.87243201   -3.8765949   0.89059219   -1.7864087 -0.00019776336 
 3473000   0.95912068   -4.2689412   0.62079586   -2.3293544 -0.00011802718 
 3474000     1.363073   -4.3727415   0.46620329   -2.0323128 -8.7014383e-06 
 3475000    1.2690635   -3.6481221    0.5317889   -1.3713709 0.00046100325 
 3476000    1.0100069   -3.7871504   0.79329343   -1.6050974 2.2038006e-05 
 3477000     1.158319   -4.0658974   0.53869215   -1.9345165 7.3795037e-06 
 3478000   0.93072972   -4.0504945   0.34561598   -2.4251251 0.00033377125 
 3479000    1.5368379   -3.8580455   0.19433513   -1.5505583 0.00043892776 
 3480000   0.91473124   -3.9330152   0.46960703   -2.2056527 -0.00018539812 
 3481000    1.0857594   -4.3739923    0.5584678   -2.3226054 -1.6549989e-05 
 3482000   0.98710476   -3.9705833     0.664839   -1.9484752 -3.6467697e-05 
 3483000   0.82162875    -3.670941   0.36830993   -2.1728915 -2.5714918e-05 
 3484000    1.0863528   -4.0274372   0.45366849   -2.0800336 -0.00022608554 
 3485000    1.1892199   -4.0948335   0.39676545   -2.0628906 2.1216906e-05 
 3486000   0.69795939    -4.145781   0.41402114   -2.7720657 7.9247953e-05 
 3487000    1.2312171   -4.1822256   0.44529775   -2.0440044 0.00020858485 
 3488000   0.70907617   -4.1339667   0.40974122   -2.7492457 -0.00018399857 
 3489000   0.86849905   -3.8884229   0.40059702   -2.2936397 7.0430501e-07 
 3490000   0.63821041   -3.9989655   0.55389013    -2.567536 0.00010896394 
 3491000     1.094928   -3.9956676   0.40298691   -2.0871546 0.00028992326 
 3492000    1.3517627    -4.186047   0.55241481   -1.7749586 0.00019118672 
 3493000   0.64039591   -3.8508829   0.34948355    -2.620855 -3.1671546e-05 
 3494000   0.86929636   -4.0373269   0.48835899   -2.3536855 0.00021422159 
 3495000   0.97346708   -4.3620467   0.78512853    -2.238401 -0.00029901059 
 3496000    1.0007089   -4.2426254   0.56991582   -2.2967348 -4.9657689e-05 
 3497000    1.0620607   -3.5487758   0.34990294   -1.7385394 0.00013386751 
 3498000   0.88106553   -3.9328489   0.99722322   -1.7241606 3.5951718e-05 
 3499000    0.6952934   -3.6970355   0.37493836   -2.3660687 -0.0001862531 
 3500000   0.82105961   -3.2815111    0.3096144   -1.8429397 -0.00014996243 
 3501000    1.0444772   -3.9481201   0.32210187   -2.1898621 2.5904722e-05 
 3502000   0.60199414   -3.6110094   0.30144847   -2.4818189 5.1982649e-05 
 3503000     1.314297   -4.2868038    1.0617703   -1.4178751 -0.00016930925 
 3504000    0.8163124   -3.5193579    0.6357965   -1.7611319 0.00010604882 
 3505000   0.81615261   -3.8722428   0.35397908   -2.3960539 -0.00015282757 
 3506000     1.066772    -4.039733     0.355901   -2.2170205 3.1642033e-05 
 3507000    1.1890512   -3.9403547   0.67987154   -1.6255377 -0.00017464839 
 3508000   0.57907348   -3.9993628   0.46971547   -2.7334213 -0.0001804888 
 3509000    1.4764991   -3.2196481   0.43608056  -0.75338129 -0.00021652978 
 3510000   0.97406291   -4.3699835   0.43580169   -2.5948453 -0.0001241681 
 3511000   0.73459356   -4.3105835   0.25249989   -3.0480175 0.00011033994 
 3512000      1.01216   -4.3477563   0.53066424   -2.4253721 0.00025970732 
 3513000    1.1481861   -3.8100803   0.23330539   -1.9980191 0.00013818782 
 3514000     1.703401   -3.5240077   0.24385537  -0.93797586 -4.5050946e-05 
 3515000   0.91740659    -3.984428   0.60639732   -2.1165966 0.00014715529 
 3516000   0.79640581   -3.7594125   0.17174431   -2.4926102 5.866093e-06 
 3517000   0.98023643    -3.067643   0.51850566   -1.2013123 0.00032143715 
 3518000    1.1197078   -3.9343549   0.44397257   -1.9507842 2.3267255e-06 
 3519000    1.0231227   -4.1297372   0.40917098   -2.3137725 -1.5803146e-05 
 3520000    1.1677408   -4.3143972   0.37032673   -2.3384269 9.704362e-05 
 3521000   0.73775776   -4.2380687   0.32468509   -2.8989667 -8.7539857e-05 
 3522000    1.1942602   -3.8984341   0.63238147   -1.6239448 -5.5436097e-05 
 3523000     1.101629   -4.1464895   0.38483316   -2.2469165 -8.8773744e-05 
 3524000    1.0328118   -4.1649379   0.50314722   -2.2416746 0.00027694919 
 3525000   0.96791747    -3.041505    0.2793295   -1.4312889 -1.0501494e-05 
 3526000   0.81360364   -4.1352338   0.41526137   -2.6012674 0.00037093359 
 3527000   0.78580777   -3.4834611   0.78474779   -1.6182276 -0.00047646839 
 3528000   0.72777495   -4.4295854   0.42877323   -3.0001216 -9.7173066e-05 
 3529000   0.94284991   -4.2027598   0.33969647   -2.5666447 0.00013538552 
 3530000    1.3897658   -4.0965137   0.52736623   -1.6582195 0.00039700577 
 3531000    1.5264119   -4.1877066   0.89691189   -1.1919783 7.7067384e-05 
 3532000   0.99617545   -3.8597338   0.41320791   -2.0767846 0.00044366047 
 3533000   0.81868743   -4.2056837   0.45220619   -2.6277823 0.00045442376 
 3534000   0.94640247   -4.0499305   0.59658685   -2.1520402 -0.00020049566 
 3535000   0.86234466   -4.1157442    0.5401783    -2.389842 -0.00014652981 
 3536000    1.4727299    -4.332844    0.6213901   -1.6864502 0.00011928578 
 3537000   0.50672917   -4.2314085   0.62965248   -2.9050034 0.00027265289 
 3538000   0.85087088   -3.6265662   0.73151848   -1.7251003 -0.00036829314 
 3539000   0.70052168   -3.5886764   0.46189511    -2.163564 0.0002496042 
 3540000    1.1052177   -3.8143208   0.33854437   -1.9561021 -0.0001284659 
 3541000    1.1809757   -4.2898716   0.43621366   -2.2298164 -7.1812485e-05 
 3542000    1.1983154   -3.8778957   0.36253681   -1.8676752 -6.3873878e-06 
 3543000   0.77030901   -4.2977469   0.44424402    -2.794328 -0.00024829122 
 3544000    1.0275369   -3.9071908   0.26178637   -2.2325412 7.1933908e-05 
 3545000    1.3136094   -4.2950831    0.8907299   -1.5981403 -0.00032588343 
 3546000   0.63879841   -3.8718096    0.7106834   -2.2827784 -0.00011400498 
 3547000   0.80530924   -3.6603433   0.92163839   -1.6314047 -0.00061918449 
 3548000   0.69315251    -3.657477   0.39766391   -2.3067284 -1.6897104e-06 
 3549000   0.62297308   -3.9468659   0.19872109   -2.8915569 -0.00013124865 
 3550000    1.0737455   -4.0296379   0.46904013   -2.0841978 1.3767913e-05 
 3551000   0.97332009   -3.9852621   0.30557835   -2.3413686 1.8834239e-05 
 3552000   0.79553911   -3.4146185   0.69326535   -1.6274868 0.00012096017 
 3553000   0.87253771   -4.0566381   0.78529232   -2.0716065 6.8693967e-05 
 3554000    1.0017551   -3.7347691   0.46133271    -1.896023 0.00031012383 
 3555000   0.89956316   -4.1475918   0.47393763   -2.4367549 -4.9394369e-05 
 3556000   0.92388784   -4.0514334   0.47982935   -2.3012583 2.5611962e-05 
 3557000   0.95555932   -3.6405705   0.61841008   -1.7082663 0.00031916479 
 3558000    0.7154094   -3.4909603   0.17541576   -2.3318567 -0.00017939734 
 3559000    1.1690435   -3.8472977   0.53871772   -1.7011452 0.00045573765 
 3560000   0.84906466   -3.9949844   0.80090123   -2.0266193 0.00019146831 
 3561000    1.0969581   -4.0772838   0.47928187   -2.0896845 0.00010654773 
 3562000    1.7019934   -3.8034228   0.49840486  -0.96477701 0.00027080387 
 3563000    1.0577923   -3.7459485   0.44342981   -1.8480543 -0.00020802748 
 3564000   0.75309109   -3.7330753   0.43799321   -2.2595818 -0.00039407212 
 3565000    1.2217169   -4.1486429   0.85287967   -1.6159024 -0.0002641692 
 3566000   0.94177785   -4.0543537   0.38751121   -2.3718979 -0.00013319841 
 3567000   0.90267454   -4.3019554   0.50141436   -2.5593636 -0.00035830702 
 3568000   0.83469967    -3.738526   0.43711392      -2.1537 0.00023037205 
 3569000   0.94138062   -3.8171975   0.30110695   -2.2216922 -0.00015601012 
 3570000    1.3286184   -3.8605362   0.39034142   -1.6433444 -0.00026374262 
 3571000    0.9139087   -4.3062303   0.38741152   -2.6621943 0.00047339821 
 3572000   0.74530709   -3.8854185    1.2342921   -1.6263291 -4.8699699e-05 
 3573000   0.52114848   -3.8697308    0.3680579   -2.7850937 -0.00030183454 
 3574000   0.78138144    -3.808188   0.53559202   -2.1981965 0.00045414326 
 3575000   0.89491168   -4.0674466   0.65573224   -2.1812108 -0.0001747786 
 3576000    1.1759219   -3.3247078   0.17149641   -1.5363187 2.5853817e-05 
 3577000   0.98829505   -3.8715527   0.45786224   -2.0547848 -0.00031387519 
 3578000    1.0370013   -3.8613032   0.43667691   -1.9987495 6.7913261e-05 
 3579000    0.8064616    -4.264232   0.27718468   -2.8781626 -0.0002702699 
 3580000    0.8427796   -3.7447469   0.39084767   -2.1950773 2.2445389e-05 
 3581000    1.4291327   -3.6305691   0.44486928   -1.2206423 -8.5466526e-05 
 3582000   0.78036223   -3.8859781   0.38873742   -2.4242426 0.0002348655 
 3583000   0.76282399   -4.3128123   0.15828122   -3.1056481 -1.5138026e-05 
 3584000    1.1248657    -4.075791   0.94252351   -1.5865771 -0.00021044485 
 3585000    0.9516527   -3.1951444   0.47397638   -1.4126456 -0.00010248171 
 3586000    0.9351043   -3.9186789    0.3532596   -2.2796509 0.0002842247 
 3587000   0.50601715   -3.6396129   0.71453266   -2.2293067 -0.00011326952 
 3588000    1.2157472   -3.0899455   0.43796764   -0.9803254 -0.00028221441 
 3589000   0.67486479   -3.1377191   0.28987065   -1.9199093 0.00049366683 
 3590000   0.98568095   -3.8658292   0.51616539   -1.9943525 0.00038115525 
 3591000    1.1359849   -3.7656992   0.71848772   -1.4852323 -0.00027908551 
 3592000   0.55531115   -4.0144852   0.94276827   -2.3081641 -0.00016995797 
 3593000    1.1605275   -3.0292981   0.43882953  -0.99474318 1.3173632e-05 
 3594000    1.2477884   -4.0471394   0.33687169   -1.9945587 -2.502007e-05 
 3595000    0.7698913   -4.4785795   0.45736855   -2.9626104 -0.00020543887 
 3596000    1.1389035   -3.9907847    1.1630822   -1.2617102 -0.00028737706 
 3597000    0.9538629   -3.9596914   0.35205314   -2.2960768 -0.00012482694 
 3598000   0.82245155   -3.8206588   0.84981738   -1.8399705 5.4148408e-05 
 3599000    1.0006112    -3.206443   0.44702254     -1.38358 -0.00010411033 
 3600000   0.74873495   -3.7860916   0.57654596    -2.180035 -0.00027511831 
 3601000   0.59162702   -3.9187095   0.73170797   -2.3735144 -7.070438e-05 
 3602000   0.76566339   -3.6257989    0.5392295   -2.0337822 -4.9240191e-05 
 3603000   0.72580143    -4.142177   0.63453479   -2.5096652 -7.5812713e-05 
 3604000   0.77502974   -3.5930506   0.51109959   -2.0162851 0.00018715765 
 3605000    1.2621475   -3.9209487    0.5458055   -1.6396905 -0.0001020681 
 3606000    1.3733153   -3.6273929   0.43178209   -1.3073024 0.00017936548 
 3607000    1.2173719   -3.9654811   0.35291651   -1.9386782 7.5791559e-05 
 3608000   0.99294112   -3.8521126   0.78178792   -1.7050307 -3.7916669e-05 
 3609000    0.8147975   -3.4833696   0.88796644   -1.4750566 0.00027467917 
 3610000   0.60303011   -3.9099225   0.21838893   -2.8623671 0.00024860876 
 3611000   0.94689013   -3.4598757   0.29360666   -1.8642951 -0.00022862703 
 3612000    1.2916461    -4.365742   0.22113094   -2.3685976 0.00025717167 
 3613000   0.90892763   -3.9244528   0.22485798   -2.4498194 0.00011796486 
 3614000   0.89666771   -3.8273841   0.40305562   -2.1914104 -4.42602e-05 
 3615000    1.4071185   -3.4992413   0.41784102   -1.1466122 0.00032619885 
 3616000    1.1048157   -3.7494562   0.74501918   -1.4853154 -0.00049235247 
 3617000    1.0835804   -4.2005828   0.34230067    -2.368359 0.00021638057 
 3618000    1.1502614   -4.3217365    0.5079779   -2.2321491 -2.8962857e-05 
 3619000   0.88871476   -3.3778313   0.68886569   -1.4669828 1.6755957e-05 
 3620000   0.93866762   -3.5379452  0.090206288    -2.157071 8.6445808e-05 
 3621000   0.85028657   -4.4102993   0.27785666   -2.9632986 -4.3510581e-05 
 3622000    1.0871318   -3.7810956    0.4698232   -1.8164661 -3.4668126e-05 
 3623000   0.78755093    -4.318453   0.24830908   -2.9872614 -0.00031283295 
 3624000    1.3317103   -3.9046118   0.68427363   -1.3892365 -0.00015879816 
 3625000   0.89278829   -3.9852647   0.29754948   -2.4601313 -8.9578175e-05 
 3626000   0.90230647    -3.959294   0.32145078   -2.3971719 -8.6537371e-06 
 3627000    1.1101443   -3.6258557      0.57001   -1.5293973 0.0001889483 
 3628000    1.4967721   -3.9762765   0.42425595   -1.4939588 5.3463072e-07 
 3629000    1.0839857   -4.0955674   0.38626312   -2.2188239 0.00028066487 
 3630000   0.89622273   -3.6560466   0.63203692   -1.7917034 9.2738734e-05 
 3631000   0.99197682   -4.3472133   0.36990231   -2.6133428 -0.00013668677 
 3632000   0.93406176   -3.8227541   0.42219735   -2.1162218 -6.9425409e-05 
 3633000   0.55749937   -4.3334472   0.17011818   -3.3967673 0.00021523588 
 3634000    1.1031818   -3.9403968   0.41456544   -2.0089564 0.00027497979 
 3635000    1.0482316   -4.4838522   0.20443837   -2.8380953 0.00036783096 
 3636000    1.0699636   -4.0109894   0.24750282   -2.2922866 0.00034725783 
 3637000     1.011475    -3.998566   0.48497756   -2.1228103 -0.000367331 
 3638000    1.1373572    -4.097398   0.75382959   -1.7797022 -0.00022774405 
 3639000   0.98607195   -4.0906477   0.21869665   -2.5161021 -4.8505766e-07 
 3640000   0.75135124   -3.8858013   0.29705124   -2.5556421 0.00017151997 
 3641000    1.0509342   -4.2542627   0.54206841   -2.2671597 3.2169189e-05 
 3642000    1.6422315   -3.5403433    1.0374662  -0.24480879 -0.00054063826 
 3643000    1.0334852   -4.0555702   0.41895229   -2.2155758 0.00025672169 
 3644000   0.80353603   -3.4620385   0.37824175   -1.9789348 0.00021355998 
 3645000   0.98632972   -3.6839376   0.48031261   -1.8474216 -0.00012381269 
 3646000   0.65799792   -3.9393408   0.27037505   -2.7642186 -0.00018750687 
 3647000    1.3723988   -4.2362989   0.31055768   -2.0386929 -0.00015017023 
 3648000    1.2286084    -4.141818    0.3063893    -2.146092 0.00022973379 
 3649000   0.67791905   -3.9636347   0.48630013   -2.5451959 -5.4431314e-05 
 3650000   0.93075463   -4.0307069   0.22482578   -2.5260935 5.541186e-05 
 3651000   0.77508241   -3.9304729   0.79452647   -2.0702081 -9.3750534e-05 
 3652000     0.940997   -3.9059622   0.31752457   -2.2945667 -0.00025647726 
 3653000    1.3246396   -3.5919929   0.71424438    -1.056369 -0.00033996044 
 3654000     1.218335    -4.352978   0.53641701   -2.1413504 -0.00014993849 
 3655000   0.96394904   -3.9910839   0.15273853   -2.5129154 0.00045926495 
 3656000   0.83936423   -3.9360254   0.41264446   -2.3692552 3.5895312e-05 
 3657000   0.89454854   -3.9555121   0.40973459   -2.3157733 4.0793495e-05 
 3658000    0.6622759   -4.1340712   0.30504067   -2.9184012 -0.00010454869 
 3659000    1.4158857   -4.1207577   0.52968056   -1.6442343 0.00026427428 
 3660000    0.8488572    -4.348466    0.4778427   -2.7034447 0.00010665188 
 3661000    1.2296234   -4.1409383   0.55225377   -1.8979524 0.00027698574 
 3662000    1.0815421   -4.1404229   0.50546059    -2.147842 0.00049885816 
 3663000   0.75455993   -4.0665818    0.3017979    -2.727264 0.00023564345 
 3664000   0.92993487   -3.6463024   0.69870383   -1.6689381 -0.00024582967 
 3665000   0.71635688   -4.2705082   0.31551847   -2.9699991 0.00026820869 
 3666000   0.96707291   -4.3868758   0.96755953    -2.089591 -0.00041508199 
 3667000    1.2311936   -4.3729729   0.41478367   -2.2652981 -1.4897412e-06 
 3668000   0.86391481   -3.4496503   0.21099996   -2.0507675 0.00027355181 
 3669000    1.0820995     -3.30735    1.2726144  -0.54684884 0.00024588859 
 3670000   0.76073792   -3.6561443    0.2781311   -2.3319986 -0.00023208857 
 3671000   0.64401941   -3.8137164   0.82279697   -2.1053928 1.6315298e-05 
 3672000    1.4129722   -4.1341221   0.59918468   -1.5921006 2.3316983e-05 
 3673000    1.2072051   -4.2860153   0.35821953   -2.2678887 0.00012193583 
 3674000    1.3486884   -3.7168476   0.49273782   -1.3696632 -8.0415731e-05 
 3675000    1.0152541   -4.2841112   0.58273475    -2.305402 7.1894673e-05 
 3676000   0.98240911   -4.1657102   0.55692116   -2.2579766 -0.00012699007 
 3677000   0.93942381   -3.6418254   0.72733896   -1.6227788 -0.00038585193 
 3678000   0.61388122   -4.2210028   0.49204364   -2.8848724 -0.00030801883 
 3679000   0.94095647   -3.8825759   0.37966642   -2.2090944 0.00064540879 
 3680000    1.3775138   -4.1896903   0.67379686   -1.6218119 -0.00027357607 
 3681000    1.0285978   -3.5871906   0.19715891   -1.9757097 0.00020260335 
 3682000    1.1769924   -4.1095929   0.52906292   -1.9621654 3.4396674e-05 
 3683000   0.95374692   -3.7911112   0.42106394   -2.0586453 -0.0002100521 
 3684000   0.79800538   -4.2020748    0.3241248   -2.7806926 2.2855853e-05 
 3685000   0.77910991   -3.5548524    0.3363716   -2.1472047 -5.9152415e-05 
 3686000    1.5478826    -3.905551   0.91392983  -0.86328262 -0.00017377106 
 3687000    1.0713557   -4.0528795   0.32466797   -2.2550974 -0.00013197601 
 3688000    1.2278596   -4.0906825    1.0324872   -1.3698884 0.00027175211 
 3689000   0.91509449   -3.5254478    0.4491115   -1.8180814 0.00025420755 
 3690000   0.75510353   -4.1373349   0.31588228   -2.7831853 -9.1755466e-05 
 3691000    1.4590876    -3.342377   0.25355625   -1.0825754 0.00017477292 
 3692000    1.0651945   -3.4760554   0.29349503   -1.7179178 -0.00011823567 
 3693000   0.96736401   -3.6252727   0.17908618    -2.116061 -0.0001350493 
 3694000    1.4005631    -3.276788   0.70271826  -0.64829549 -0.00019962033 
 3695000   0.74191312   -4.1454581   0.85550954    -2.269818 -0.00024872875 
 3696000     1.074953   -4.0786783   0.33508389    -2.265534 -0.00011449282 
 3697000    1.4481309   -3.6868496   0.74597504  -0.94969461 5.4572732e-05 
 3698000    1.4574626   -3.7873208   0.42426559   -1.3590442 -0.00016956816 
 3699000   0.96068178   -4.3343476   0.65432991   -2.3590802 -0.00019500308 
 3700000   0.93352611   -3.8848439   0.45525264   -2.1459929 -5.3567149e-05 
 3701000   0.98146423   -3.1655023    0.3096807   -1.5063082 0.00019368378 
 3702000   0.82558254   -3.8879871   0.54202816   -2.2107829 3.5012666e-05 
 3703000    1.0868529    -3.064227   0.52575641   -1.0440478 -0.00032676527 
 3704000    0.9414581     -4.05987   0.68543119   -2.0799339 -2.1411018e-06 
 3705000   0.78580522   -3.8900382  0.095242312   -2.7143137 -0.00021870497 
 3706000   0.92120701   -3.9422094   0.17908873    -2.496461 -0.00028567659 
 3707000   0.98564186   -3.7931196   0.21439923   -2.2234628 -0.00012617842 
 3708000    1.4966839   -4.3643545   0.39900914   -1.9074049 3.5958883e-05 
 3709000    1.7821362   -2.9220518   0.49971474  0.028100272 7.5880576e-05 
 3710000    1.3343534   -3.7960941   0.30979882   -1.6515593 2.935264e-05 
 3711000    0.8875362    -3.932682   0.28903701   -2.4232827 0.00039994162 
 3712000   0.98296339   -3.8327146   0.42625212   -2.0548878 -0.00038782413 
 3713000   0.89678867   -4.2159078   0.51574424   -2.4670791 -8.9296354e-05 
 3714000      1.32922   -3.5999622   0.68449148   -1.0877932 0.00020336531 
 3715000    0.9391052   -3.8232124   0.84695775    -1.684985 -1.3560652e-05 
 3716000   0.94314531    -4.395592   0.65021032   -2.4485569 -5.4834191e-05 
 3717000   0.83626948   -3.6809947   0.55243336   -1.9786908 0.00023188143 
 3718000   0.80791364   -4.2771712   0.17415371   -2.9921362 -0.00012999502 
 3719000   0.95186989   -3.8536657   0.29288301   -2.2519616 -3.6002049e-06 
 3720000    1.7337973   -3.8419009   0.40746072   -1.0504689 0.00011511519 
 3721000     0.914979   -3.6320127   0.34500017   -2.0289164 -5.5689572e-05 
 3722000    1.2873505    -3.963954   0.26572888   -1.9281182 0.00015201807 
 3723000   0.96037416   -4.2158062   0.58382353   -2.3114682 1.2169313e-05 
 3724000    1.0864616   -4.1229674   0.50747001   -2.1216127 -0.00035273735 
 3725000   0.63965298   -4.5183453    1.0009982   -2.6378243 -0.00026154144 
 3726000    1.0755382   -3.9250607   0.32415553   -2.1220401 8.3534113e-05 
 3727000   0.79789903   -3.4637802   0.52872485   -1.8379441 -0.0004894381 
 3728000    1.0199924   -4.3582389    0.3443526   -2.6113968 0.00013115076 
 3729000    1.4398587   -3.8738204    0.3478645   -1.5461503 -0.00021055989 
 3730000   0.64469445   -4.1569851    0.3672874   -2.9032428 -0.00018634884 
 3731000    1.3576891    -3.798674   0.42675254    -1.505099 0.00012201682 
 3732000    0.5837442   -3.9924722   0.76169708   -2.4281268 -0.00029716753 
 3733000   0.61989229   -3.7295655   0.71009234   -2.1671212 2.3045977e-05 
 3734000    0.9328767   -4.2335289   0.59991256   -2.3509109 0.00023866042 
 3735000     1.240784    -4.241877    0.6448247   -1.8909743 -6.6807613e-06 
 3736000    0.5913729   -3.8129183   0.57036382   -2.4294168 3.0417885e-05 
 3737000   0.92689015   -3.9394433   0.77226336   -1.8927059 -0.00028271152 
 3738000    1.4683923   -4.0661595   0.33431943   -1.7128006 0.00052186643 
 3739000    1.2041812   -4.0227476    0.5991876   -1.7678107 -0.00036755675 
 3740000   0.47679545   -4.1959069   0.60729121   -2.9330219 -0.00027050911 
 3741000   0.60091792   -4.3203144   0.86502532   -2.6290269 -0.00021851944 
 3742000    1.1459087   -3.7109839   0.28189043    -1.853469 0.00027501134 
 3743000    1.0037568   -4.1838279   0.24947466   -2.5541876 7.3019139e-05 
 3744000    1.0755326   -3.5101237   0.50926859   -1.5219978 2.1901072e-05 
 3745000   0.97358154    -4.039993   0.36357713   -2.3377412 -5.0140751e-05 
 3746000   0.88124702   -3.8808877   0.51983954   -2.1493335 7.764363e-05 
 3747000   0.81169309   -3.9513332   0.80473196   -2.0305232 0.0001406208 
 3748000     1.178348    -3.988959   0.34406707   -2.0246635 -8.1415828e-05 
 3749000   0.96774218   -4.1387558   0.28227335    -2.525837 5.8740062e-05 
 3750000     1.191517   -3.5733077   0.25305455   -1.6819173 -0.0001235634 
 3751000   0.82551805   -4.2662438   0.39187149    -2.739285 0.00015702748 
 3752000    1.1001416    -3.748947   0.73348142   -1.5027709 -0.00033932777 
 3753000   0.69610173    -4.091524   0.54615569   -2.5882285 -0.00027160509 
 3754000    1.1189397   -3.6906806   0.17834855     -1.97379 0.00016690974 
 3755000   0.94308592   -3.5281938   0.41871591   -1.8127348 -8.5891869e-05 
 3756000    1.0238702    -4.307717   0.62503163   -2.2748638 -6.1652419e-05 
 3757000    1.1412546   -3.3968628   0.71970013   -1.1079376 0.00047984042 
 3758000    1.0718481   -3.4442444   0.52128912   -1.4491642 6.0071794e-05 
 3759000    1.0675829   -3.1036676   0.68339571  -0.95234537 -0.00011504789 
 3760000    1.0831322   -4.0676087   0.42518518   -2.1531168 -0.00018369188 
 3761000    1.0021155   -3.9230892   0.83771053   -1.7074698 0.00011936118 
 3762000   0.58390462   -3.3384317   0.42768693   -2.1078759 6.962987e-05 
 3763000    1.0939325   -3.3563486   0.91435485  -0.93783665 -0.00039202443 
 3764000    1.0395071   -4.0176061   0.40702775   -2.1812561 -9.1463823e-05 
 3765000   0.87771086   -3.9219897   0.99244352   -1.7226937 -0.00024090584 
 3766000   0.88612763   -3.8184282   0.39451078   -2.2054919 -0.00035090761 
 3767000   0.73335536   -4.1706665   0.50690687    -2.655396 3.6133975e-05 
 3768000   0.84388311   -3.4870852   0.84136386    -1.485382 -0.00027957137 
 3769000     1.257812   -3.7902812   0.34815801   -1.7126317 0.00027714287 
 3770000    0.9264616   -3.9683063   0.56760601   -2.1268156 1.2329866e-05 
 3771000    1.0477596   -4.1361479   0.50304656   -2.1924319 -6.3203925e-05 
 3772000   0.87219893   -4.2061686   0.48457469   -2.5223204 3.719472e-05 
 3773000   0.99939739   -4.2336053    0.8334993   -2.0259346 -0.00019831978 
 3774000   0.92727268   -4.3342178   0.48567527   -2.5735426 -0.00019236503 
 3775000   0.69495278   -3.5797346   0.29348889   -2.3306857 -7.9936335e-05 
 3776000    0.8386895   -3.9109818   0.50327871    -2.254505 -0.00011257596 
 3777000   0.76285521   -3.4628481   0.62049725   -1.7934249 0.0010393626 
 3778000    1.4912525   -3.8105914   0.92022597  -0.83989326 2.6726423e-05 
 3779000    1.3352551   -4.0949817   0.30165703    -1.957349 0.00025107242 
 3780000   0.94522262   -3.5979595   0.50855236   -1.7897261 0.00012227254 
 3781000   0.56243229    -3.376282   0.62044851   -1.9824891 -1.3839479e-05 
 3782000   0.91534095   -3.6875639   0.39928606   -2.0296841 -8.1221263e-05 
 3783000    0.6650233   -4.1075857   0.84732906   -2.3458496 5.3390822e-05 
 3784000   0.93162144   -3.5267396   0.46114449   -1.7846156 -0.00046555131 
 3785000   0.97513511   -3.7713996   0.57826358   -1.8523252 1.9100457e-05 
 3786000   0.55130839   -4.0556602   0.24540798   -3.0522031 -0.00029830949 
 3787000      1.01091    -3.850681   0.86986194   -1.5908178 0.00030491506 
 3788000   0.77273912    -4.180624   0.32527997   -2.7928277 0.00013811758 
 3789000    1.0769319   -3.5867506   0.33692982   -1.7690394 -4.5788505e-05 
 3790000    1.0773833   -3.8472961   0.57615854   -1.7897355 -3.3775487e-05 
 3791000   0.75256423   -3.9563494   0.37777911   -2.5437945 -7.8198881e-06 
 3792000    1.0343943   -3.6381594   0.90693524    -1.308932 8.316124e-05 
 3793000    1.1494652   -3.6219422   0.37058224   -1.6708454 3.3360562e-05 
 3794000    1.2440368   -3.9393495   0.22521559   -2.0035833 0.0004561026 
 3795000   0.98863991   -3.7806653   0.93009817   -1.4911873 -6.2910252e-06 
 3796000    1.1728493   -3.7805625   0.29778156   -1.8701132 5.1719405e-05 
 3797000   0.84811617   -3.9824917   0.27835097    -2.537981 0.0002888438 
 3798000   0.84719536   -3.7784689   0.51542416   -2.0981511 0.00026172467 
 3799000   0.66491987   -4.0233771    0.5867913    -2.522321 -0.00011175785 
 3800000   0.90419096   -3.4275951   0.68592729   -1.4984052 3.0803622e-06 
 3801000    1.3214799   -3.3113337   0.53216188  -0.96213688 -0.00019518766 
 3802000    0.5246188   -4.0612396   0.63217062   -2.7077181 -0.00011277641 
 3803000    1.2788677   -4.1334684   0.49561595   -1.8794094 -0.00023306297 
 3804000   0.99471438    -4.123465   0.42416091   -2.3315718 -0.0002077015 
 3805000   0.58849378   -4.1147256   0.44176427   -2.8637824 -3.8461385e-05 
 3806000   0.87793507   -3.4581704    0.4501143   -1.8008953 -0.00032546414 
 3807000   0.90415806   -3.8850924   0.46582084   -2.1760542 0.00037627523 
 3808000   0.57519755   -3.5292339   0.85063503   -1.8877022 -2.4756636e-05 
 3809000    0.8634168   -4.1704799   0.34726955   -2.6360122 0.00028770437 
 3810000   0.76448222   -3.2698876   0.29777405   -1.9209505 0.00041351281 
 3811000    1.3003913   -3.8145494   0.59579449   -1.4307169 0.00022187711 
 3812000   0.89307468   -3.9256314   0.38740023   -2.3102535 -0.00025465548 
 3813000    1.0111339   -3.9249806   0.20728432   -2.3273871 0.00016027259 
 3814000    1.3815725   -3.5336068   0.92305466  -0.71088992 -2.9254518e-05 
 3815000    1.1452324     -4.20205   0.57176297   -2.0555925 0.00035552484 
 3816000   0.94773199   -4.3070636    1.2082342   -1.7956979 -0.00028329027 
 3817000    1.1829554   -3.9414513   0.36095808   -1.9539296 2.5126302e-05 
 3818000    1.2010732    -4.009554   0.50914355   -1.8489347 -0.00031135689 
 3819000   0.77409509   -3.6898414   0.25847898   -2.3669816 -0.00041267373 
 3820000    1.0544913   -3.6451017   0.58936683   -1.6058094 0.00041938103 
 3821000    1.2865207    -4.029342   0.27354801    -1.986828 -7.1720084e-05 
 3822000   0.65441304   -3.7214312   0.23438017    -2.587233 -4.6706329e-06 
 3823000   0.82129389   -3.8758281   0.80009308   -1.9464559 4.2718701e-05 
 3824000   0.79606018   -3.8832024   0.33469198   -2.4539277 0.00021845958 
 3825000    1.3236442   -3.8528511   0.24234377   -1.7904965 0.00021933908 
 3826000    1.1261637   -3.9906322   0.05339488   -2.3887623 0.00042772598 
 3827000    1.1787985   -3.7543051   0.44685698   -1.6866003 -8.6147996e-06 
 3828000    1.0015495   -4.0721408   0.53918082   -2.1558293 -0.00029324538 
 3829000   0.89093696   -4.1104077   0.65052927   -2.2348401 -0.0001874144 
 3830000    1.6544996   -3.6452596   0.70045176  -0.66987096 -0.00034549972 
 3831000   0.76975383   -3.9006418   0.18838356   -2.6538467 0.00019946185 
 3832000   0.73695836   -3.7964456   0.99560501   -1.7875228 -0.00030721848 
 3833000   0.47582071   -3.8199832   0.88818339   -2.2775464 -0.0003721225 
 3834000    1.2069145   -4.0047042    0.4140008    -1.931196 -6.0987545e-05 
 3835000    1.1690781   -4.2387231   0.43678046   -2.1944603 -7.7002771e-05 
 3836000   0.96747136   -3.6151884   0.67372364   -1.6111917 0.00022632948 
 3837000    1.0945046   -3.8433533   0.39313191   -1.9452775 -0.00026107576 
 3838000    1.1186418   -3.4446162   0.65762075    -1.248863 0.00018798101 
 3839000   0.91855384   -3.5250796   0.67702569   -1.5850424 -9.3848981e-05 
 3840000    1.3911732   -4.2045792   0.84525912   -1.4464569 -0.0002165779 
 3841000   0.95727314   -4.1823344   0.47293146   -2.3931523 -5.5553021e-05 
 3842000    1.1568033   -3.9139702   0.40409695   -1.9192687 3.849265e-05 
 3843000   0.97165803   -3.7749968    0.6940158   -1.7449512 -0.0001382659 
 3844000   0.83973139   -4.0629156   0.30353823   -2.6047467 -0.00017416892 
 3845000    1.2151253   -3.1027769   0.44007075  -0.99190875 0.00049852251 
 3846000   0.65310244     -4.40302   0.39304596   -3.1119582 -0.00016238595 
 3847000   0.98800976    -4.186826   0.35753426   -2.4707784 0.00017384211 
 3848000    1.4682066   -4.3742601   0.63001567   -1.7254603 6.4578021e-06 
 3849000    1.0626632    -4.096243   0.16357326   -2.4715079 0.00029941431 
 3850000    1.5873688   -4.0042388   0.61276108   -1.2088456 -3.0135357e-06 
 3851000   0.74487512   -3.9077275   0.74587191   -2.1376523 -0.00036353886 
 3852000    1.4202068   -3.6321062   0.68724374  -0.99207805 0.0002060497 
 3853000    1.3650441   -3.6987927   0.59386249   -1.2279946 -0.00017570287 
 3854000    1.1148305   -4.4623732     0.469023   -2.4604583 -0.00015457214 
 3855000   0.86748482   -3.9527433   0.46449492   -2.2954568 -0.00013286085 
 3856000    1.5247346   -3.9717572   0.61671818    -1.258529 0.00035964078 
 3857000    1.2168983   -3.8267798   0.53050297   -1.6230416 0.00026111209 
 3858000    1.2964515   -3.5356781   0.45262204   -1.3004353 0.00019904065 
 3859000   0.69580047   -3.5204414   0.69688334   -1.8668324 -0.00013812976 
 3860000    0.9111475   -3.7612058   0.51732064   -1.9910574 0.00054004018 
 3861000   0.76560045   -4.1035043   0.51607712   -2.5347265 -0.00031377767 
 3862000   0.91973093   -3.6941815   0.91153774   -1.5180138 -0.00053690796 
 3863000   0.84332053   -3.9857708   0.48668976   -2.3395153 -9.9591808e-05 
 3864000   0.59015453    -3.508808   0.69733539   -2.0000102 0.0001093127 
 3865000   0.81196962   -4.1723967   0.29282617   -2.7631123 7.2199915e-05 
 3866000    1.0281455   -3.5786592   0.54840274   -1.6165564 0.00018740436 
 3867000     0.727787   -4.3322239   0.65153838   -2.6799784 -0.00025330095 
 3868000    1.0468304   -3.6709869   0.27436207    -1.957233 0.00029681518 
 3869000   0.75728371   -3.7954152   0.42459765   -2.3295524 3.208552e-05 
 3870000   0.51936326   -3.3087809   0.67859757   -1.9160588 -0.00021063396 
 3871000    1.5571353   -4.0855221   0.40194031   -1.5425208 0.00034768457 
 3872000    1.1050431   -3.9997819   0.90235718   -1.5779904 -0.00010716379 
 3873000    1.2152901   -3.5689894   0.54065892   -1.3573065 -1.6610175e-05 
 3874000   0.69409946   -3.9204004   0.20317656   -2.7628371 7.012008e-05 
 3875000    1.0692699   -3.5559935   0.25371933   -1.8320281 9.6364068e-05 
 3876000    1.0802893   -3.8360722   0.64168825   -1.7089862 -0.00039371109 
 3877000    1.0876786   -3.7545838    1.0778079   -1.1812177 -0.00042435421 
 3878000   0.89329664   -3.2815598   0.54291113   -1.5103658 -0.00019157441 
 3879000   0.57946434   -3.7430429   0.19736999   -2.7489095 -2.148737e-05 
 3880000   0.71892913   -3.7315933   0.53319864   -2.2098672 -0.00013931202 
 3881000   0.69897341   -4.0348252   0.54648018   -2.5272565 -5.0545591e-05 
 3882000   0.62478279    -3.655685    0.4479412   -2.3486674 -0.00022625275 
 3883000   0.75453882   -3.8152288   0.82311854   -1.9546194 -6.5423008e-05 
 3884000    1.0143552   -2.6559292   0.49410186  -0.76708895 -0.00026400082 
 3885000    1.4072275   -3.5796393   0.42286028   -1.2218412 3.9526324e-05 
 3886000   0.83947587   -3.8893546   0.65256571   -2.0825096 -0.00015381103 
 3887000   0.81764394   -4.1442764    1.1902823   -1.8297337 -0.00024552236 
 3888000    1.1304319   -4.0386477   0.20462636   -2.2796776 -9.5974691e-05 
 3889000   0.98905999   -4.0259484   0.23649591    -2.429495 0.00058329326 
 3890000    0.9351103   -3.8942609   0.35393176   -2.2545525 0.00015685293 
 3891000   0.68513792   -4.0784151   0.29985771   -2.8364927 0.0001722184 
 3892000     1.109545   -3.6488465   0.63532524   -1.4878969 -6.1901204e-05 
 3893000    1.0022293   -3.9101785   0.80757895   -1.7245342 -8.1296975e-05 
 3894000    1.2924152   -3.9277604   0.39485472   -1.7558348 0.00060958077 
 3895000   0.88162088   -3.7940582   0.36168156    -2.220148 -0.00019470357 
 3896000    1.3791805   -4.1498108   0.41855042   -1.8348873 6.9088718e-05 
 3897000    1.0269767   -3.5107746   0.52310838   -1.5755733 0.00027194178 
 3898000   0.68637934   -4.1675473   0.21375235   -3.0100234 9.1317413e-05 
 3899000   0.76124737   -3.1327971    1.1244766  -0.96160534 -0.00037535808 
 3900000    1.6018516    -3.955416   0.40831565   -1.3445545 0.00021453775 
 3901000   0.98024989   -3.8723853   0.71679699   -1.8077447 -6.9248204e-06 
 3902000   0.72183592   -3.9084282   0.99218642   -1.9237174 -0.00021912663 
 3903000    1.4102359   -3.6061083   0.68706536  -0.97996857 -7.5733537e-05 
 3904000   0.46018589   -3.9012619   0.58641071   -2.6820956 -0.00020839673 
 3905000   0.72095303   -4.0208331   0.59610253   -2.4334202 0.00011203051 
 3906000     1.311135     -3.37874   0.29205596   -1.2838733 -5.3033385e-05 
 3907000    0.8772947   -4.4259876   0.35412279   -2.8655846 3.595543e-05 
 3908000    1.2871739   -3.6009999   0.76988606   -1.0612498 2.0924383e-05 
 3909000    1.1605811   -3.6575376   0.59149932   -1.4702393 -0.00017137262 
 3910000     1.111623   -3.9537663    0.8629685   -1.5623162 0.00018164595 
 3911000    1.1811608   -4.0092128   0.53103192   -1.8540848 -0.00041968295 
 3912000   0.69998474    -4.185944   0.83848714   -2.3849779 -0.00029266713 
 3913000   0.98845607   -3.8183749   0.33034445   -2.1289034 -0.00046335499 
 3914000   0.74194166   -4.2962047   0.53878745   -2.7372475 0.00031502727 
 3915000   0.98103887    -4.252034    0.8090352   -2.0940704 -0.00024895091 
 3916000    0.8516706   -3.4361927   0.61693067   -1.6482149 0.00018825666 
 3917000   0.74880178   -3.9072211   0.21382493   -2.6637938 7.8531425e-05 
 3918000    1.2242897   -4.2876121   0.73136932   -1.8728445 -0.0003146055 
 3919000    1.1096696   -3.3839744   0.21431804   -1.6438607 7.813559e-05 
 3920000    1.0223884   -3.8478023   0.31868339   -2.1233348 0.00018316689 
 3921000     1.304321   -4.0324217   0.41264024   -1.8263402 -0.00016643767 
 3922000   0.56921015    -3.895481   0.38251006    -2.730307 -0.00031526135 
 3923000   0.71918618   -4.0234981    1.3850245   -1.6495926 -0.00065781496 
 3924000    1.3970168   -3.6857301     1.047546  -0.71728598 -0.00031002826 
 3925000    1.0005202   -3.9269377   0.28459234   -2.2666301 -0.00014176189 
 3926000    1.0710874   -3.8184978   0.71667114   -1.6290814 0.00022567724 
 3927000   0.90674271   -3.2115179    0.6069382   -1.3578085 2.1247011e-05 
 3928000   0.84622248   -4.0599254   0.34113163   -2.5552378 0.00020808719 
 3929000    1.4497463   -4.0765337   0.28485247     -1.79828 0.00038989215 
 3930000   0.85321251   -3.9430644   0.85005937   -1.9198379 -6.571759e-05 
 3931000    0.6698375   -3.5887544   0.44036462   -2.2273632 -0.00035503422 
 3932000    1.0274812   -4.1387686   0.67808404    -2.047898 -0.00014615733 
 3933000    0.9130564   -4.0565514   0.59354798   -2.2075509 -0.00022455048 
 3934000    1.2539463   -4.1278714   0.46116434   -1.9425309 0.00022771371 
 3935000   0.79984564   -3.8538944   0.17826879   -2.5758379 -0.00024488473 
 3936000    1.0108118   -3.8310745   0.62808732    -1.813121 0.00024837357 
 3937000      1.08143   -3.5988801     0.658187   -1.4537269 5.8507092e-05 
 3938000    1.3831691   -3.8436877   0.45488022   -1.4869499 -0.00012507042 
 3939000   0.72026148   -3.2751939    0.3687198   -1.9161145 0.00038188893 
 3940000    1.2014833   -3.1908258   0.28792978   -1.2508565 4.833825e-06 
 3941000      1.19226   -3.7571232   0.92063006   -1.1971357 0.00021332439 
 3942000   0.69119466   -3.6171196     0.494265   -2.1724619 0.00020936253 
 3943000    1.3000484   -3.3780071   0.38644984   -1.2039908 6.9826651e-05 
 3944000    1.2317198   -4.4256141   0.33811035    -2.393889 -0.0001367083 
 3945000   0.66521135   -2.8414906   0.24590293   -1.6809221 0.00036191683 
 3946000   0.89038997   -4.1115066   0.72656697   -2.1606534 -0.00029626108 
 3947000   0.88119127   -4.2351985    0.8660492   -2.1575113 -0.0003732973 
 3948000   0.98661038   -4.0011099   0.61549502   -2.0290256 0.00032710167 
 3949000    1.1040743    -3.238188   0.46714894   -1.2529369 0.00015057189 
 3950000   0.79161776    -3.789629   0.24313527   -2.4580194 0.00019910246 
 3951000   0.92243717   -4.0374058   0.77481617   -1.9942385 -0.00047258542 
 3952000     1.265653   -4.4389807   0.71988968   -1.9788181 0.00023608124 
 3953000   0.85943866   -3.5666902   0.45016043   -1.9348016 1.3536042e-05 
 3954000   0.95522957    -3.388898   0.67369195   -1.4017654 -0.00011866446 
 3955000    1.4831154   -3.8760298   0.84385938  -0.99288674 -0.00039011332 
 3956000    1.2127978   -3.9849543   0.31825643   -1.9991009 -0.00014187075 
 3957000   0.84940256   -4.1315536   0.16868484   -2.7949403 0.00037200335 
 3958000     1.132226   -4.0872845   0.35783338   -2.1726404 -0.0002651675 
 3959000   0.89909935   -2.9377649   0.46935587   -1.2321474 -0.00028064175 
 3960000    1.2436486   -3.6318554   0.21585616   -1.7059825 0.00022735946 
 3961000    1.4808978   -3.6873461   0.61780231   -1.0333093 -0.00019495558 
 3962000   0.80902285   -3.9197579   0.40233753   -2.4050139 0.00016217104 
 3963000    1.0204346    -4.252224   0.85644449    -1.992682 -0.00031875429 
 3964000    1.1157366   -3.5700028   0.19075774   -1.8451072 -0.00013069527 
 3965000    1.0937514   -4.1240883   0.45155751   -2.1686226 -0.00011449261 
 3966000   0.95109445   -3.8968113   0.17202465   -2.4170318 -4.5224201e-05 
 3967000     1.193742   -4.3902777   0.80107268   -1.9478097 -0.00024628268 
 3968000   0.97566704   -3.4440549   0.21347081   -1.8890419 0.00027902797 
 3969000    1.4259995   -3.8816772   0.19133106   -1.7295968 0.00033495971 
 3970000    0.6881669   -3.8788128   0.68689779   -2.2456856 -0.00053430465 
 3971000    1.3896178   -4.1062615   0.35868162   -1.8368555 0.00022615756 
 3972000   0.72280919   -3.5853074   0.49444116   -2.0970037 0.00018207034 
 3973000    1.2789463   -4.1478713   0.49130138   -1.8980188 -0.00022603209 
 3974000   0.98394903   -4.0055395   0.33520932   -2.3174002 -3.1687323e-05 
 3975000    1.2638881   -4.1489558   0.47373044   -1.9373791 -0.00013172918 
 3976000    1.1878615    -2.918589   0.58679461  -0.69848472 0.00013684011 
 3977000    1.1225279   -3.4641819   0.39549754   -1.5252085 -0.00012834625 
 3978000    1.0006873   -3.8041598   0.34442224   -2.0837925 5.5575934e-05 
 3979000   0.88520856   -3.7171228   0.26008337   -2.2398777 -0.00011228881 
 3980000   0.82399515   -3.6957632    0.7336109    -1.829159 -2.3118064e-05 
 3981000   0.74699133   -4.0197176    0.2839264   -2.7086781 0.00014737311 
 3982000    1.0432944   -3.6217791   0.48174242   -1.7055068 0.00027313119 
 3983000   0.90470461   -4.0503316   0.56912794   -2.2372348 7.6569944e-05 
 3984000     1.106704   -3.7263679   0.59524086    -1.609409 -0.00011140033 
 3985000   0.95161351   -3.9075375    0.7096197   -1.8894493 0.00025224477 
 3986000   0.54766368   -4.0822468   0.56806283   -2.7611464 0.00039358625 
 3987000    1.3066318   -3.6475202   0.30232435   -1.5485771 -0.00012185488 
 3988000   0.77144914   -3.7492426   0.46249054   -2.2260095 -0.00056532014 
 3989000   0.98507874   -3.4933134   0.67200622    -1.466824 -2.230525e-05 
 3990000    1.0856591   -3.4870178    0.2418712   -1.7523654 -1.6618076e-05 
 3991000    1.4094673     -3.61086   0.46949263   -1.2033498 -5.9648002e-06 
 3992000    1.2658318   -4.2702347   0.22196399   -2.3077519 0.00018281923 
 3993000    1.2039322   -3.4751356   0.43527249   -1.3844563 0.00010546678 
 3994000   0.91527199   -3.7381134    0.1806943   -2.2989201 0.00036812202 
 3995000    1.1678668   -4.2413805   0.71910431   -1.9164593 0.00013181321 
 3996000    1.3517155   -4.2224478   0.49701875   -1.8668202 -0.00046271528 
 3997000   0.94018865   -3.7483203   0.98883356   -1.4667274 4.9556727e-06 
 3998000   0.98576243   -3.4416523   0.53735436   -1.5488746 -2.7864013e-05 
 3999000   0.87670679    -4.034539    0.5021874   -2.3268798 -0.0002328133 
 4000000   0.68680078   -3.5080569   0.25267272   -2.3110331 -8.0959962e-05 
 4001000   0.97576902   -3.7671345   0.42174574   -2.0037064 -0.00021209875 
 4002000    1.0239374   -3.9652399   0.30539739   -2.2519286 2.4367234e-05 
 4003000    1.1757668   -4.2084042   0.38465432   -2.2070706 0.00018540334 
 4004000    1.2584472   -3.8349101   0.48164307   -1.6229022 -0.00018454448 
 4005000   0.58511391   -3.9689543    0.3879186    -2.776504 0.00022095178 
 4006000    1.0489314   -3.5463749   0.56092147   -1.5431728 -0.00032624439 
 4007000    1.2353778   -3.5118103   0.53740155   -1.2757643 2.4255849e-05 
 4008000   0.74571085    -3.763201   0.42202642   -2.3158221 -0.00031055704 
 4009000   0.83823469   -2.9784769    0.3697149   -1.4561893 -0.00022336702 
 4010000   0.86807949   -3.7690939   0.66005481   -1.9154298 -0.00028478007 
 4011000    1.3866609   -3.7295183    0.3388848   -1.4839748 -5.4336017e-05 
 4012000    1.0801378   -4.1277964   0.49763263   -2.1449743 -1.7954483e-06 
 4013000    1.3330641   -3.9709119   0.37993876     -1.75801 4.136327e-05 
 4014000   0.83934078   -3.1853158   0.68557283   -1.3456494 0.00021615961 
 4015000   0.88524829   -3.4258897   0.71879384   -1.4898794 -0.00010711988 
 4016000    1.1625729    -3.847544   0.44949153   -1.7995148 0.00054005711 
 4017000   0.93714075   -3.6053376   0.66642942   -1.6503397 0.00024704738 
 4018000   0.45755568   -4.2725151   0.29511402    -3.348262 -0.0002526044 
 4019000   0.82783804   -3.8035185    0.3212797   -2.3439615 -0.00032443543 
 4020000    1.3103003   -4.1114399   0.32042141   -1.9893556 0.00034474597 
 4021000   0.74592482    -4.140701   0.45304395   -2.6620105 -0.00035733848 
 4022000   0.91644573   -3.2752374   0.25563518   -1.7594894 4.652452e-05 
 4023000    1.7611564   -4.2778913   0.59284228    -1.263459 -7.1956511e-05 
 4024000    1.2254941   -3.9090588   0.54737908   -1.6766253 -0.00018338627 
 4025000    1.1558871   -4.3152313   0.47859158   -2.2472949 0.00011755345 
 4026000    1.4634109   -3.3597348   0.60701669  -0.74052811 -0.000439183 
 4027000   0.95082343   -4.1232118   0.37991134   -2.4359183 -0.00010420933 
 4028000   0.89302779   -3.2258011   0.29394459   -1.7039433 -0.00032697015 
 4029000    1.1151083   -4.0135097   0.46034131   -2.0198945 8.7066946e-05 
 4030000   0.92141479   -4.2741457   0.93434157   -2.0728588 -0.00056663473 
 4031000   0.65325088   -3.9102014   0.51485319   -2.4971282 1.4211482e-05 
 4032000    1.2998082   -4.4084341    0.5239097   -2.0972881 0.00025079337 
 4033000    1.0790349   -2.9274097   0.25738664   -1.1863501 0.00034525306 
 4034000   0.74057158   -4.0713872   0.50885195   -2.5442493 -4.1321684e-06 
 4035000    0.9092596   -3.6406044   0.63371541    -1.756657 -0.00035247829 
 4036000   0.78312988   -3.8379588   0.73124655   -2.0299087 0.00017300235 
 4037000    1.5770558   -3.9895683   0.27837531   -1.5427412 0.00040410974 
 4038000   0.97514857   -3.9099678   0.37417899   -2.1949595 -6.6139743e-05 
 4039000    1.1768567   -4.0115183   0.30115006   -2.0921903 -8.4207416e-05 
 4040000    1.0826823   -3.9974067   0.41452964   -2.0941889 -0.0002255769 
 4041000    1.2217722   -4.1242225   0.25237638   -2.1919094 0.00022576194 
 4042000    1.4249106   -3.2655938   0.40128313  -0.90505854 0.00011174724 
 4043000   0.75097789   -3.6257717    0.7548018   -1.8383753 1.6610932e-05 
 4044000    1.4010425   -3.8879506   0.41182053   -1.5496966 0.00027498823 
 4045000   0.76480438   -4.1990364   0.64780216   -2.4996282 0.00014453791 
 4046000    1.0340269   -4.2442274    0.2857524    -2.536688 -0.00025139637 
 4047000    1.2606343   -3.8363158   0.24245227   -1.8604913 0.00033342108 
 4048000    1.0643003   -4.0598382   0.63926854   -1.9571568 -5.2813803e-05 
 4049000    0.7817878   -3.4311047   0.48719395   -1.8689525 1.855942e-05 
 4050000   0.97830244   -4.1069993   0.61311207   -2.1487214 -0.00028135787 
 4051000    1.1360235   -3.7569792   0.47285528   -1.7220917 -0.00019024255 
 4052000    1.3502466   -4.1139641   0.32521346   -1.9321617 0.00013265061 
 4053000   0.90199455   -4.1917453   0.59394543   -2.3575573 -0.00031813915 
 4054000   0.75459157   -3.8218998   0.48528563   -2.2990507 -0.00042681341 
 4055000   0.71814221   -4.0073414   0.38678622   -2.6331096 -0.0002841802 
 4056000    1.3562608   -4.0868691   0.41540236   -1.8066082 0.00014881821 
 4057000   0.71098192   -3.8163191   0.28380618   -2.5549128 0.00014718551 
 4058000   0.97061035   -3.6221368   0.45070413   -1.8368435 4.3160424e-05 
 4059000    1.2916224   -4.1515203    1.0128006   -1.3627388 -0.0005118835 
 4060000   0.97892555   -3.9777125   0.68557049   -1.9461194 -0.00038377484 
 4061000   0.73425635   -4.2562608   0.70476491   -2.5418934 4.0968134e-07 
 4062000    1.4784035   -4.2096986   0.68632591   -1.4905679 -0.00035741124 
 4063000     1.054888   -3.4527459   0.30539356   -1.6968813 0.0001221227 
 4064000   0.69320436   -4.0820716   0.50336611   -2.6255495 0.00016625937 
 4065000   0.89937633   -3.7281257    0.3411934   -2.1502899 9.7813575e-05 
 4066000    1.2858695   -3.9683975   0.76099616   -1.4393308 -0.00014090548 
 4067000    1.1852094   -4.0964574    0.3007947   -2.1659998 1.1353425e-05 
 4068000    0.8341552    -4.099293   0.41674579   -2.5355838 -0.00031853382 
 4069000    1.0138342   -3.4783479     1.018783   -1.0655429 -6.1587927e-05 
 4070000    1.2067705   -3.3083427   0.23888735   -1.4101459 -9.8142841e-05 
 4071000   0.89336822   -3.1587233   0.35649754   -1.5738444 0.0002585448 
 4072000   0.94863624   -4.0053034    0.5198353   -2.1810933 -4.9898255e-06 
 4073000   0.69411787   -3.2672567    1.1104862   -1.2023584 -0.00053561037 
 4074000    1.0649953   -3.5009016   0.39790558   -1.6386275 -3.9209049e-05 
 4075000   0.73874125   -4.0295231   0.76130439   -2.2524494 -0.00016206055 
 4076000    1.5666217   -4.2015475   0.28223846   -1.7652042 0.00035611228 
 4077000   0.71013008   -4.0614234    0.4930138   -2.5919808 -0.00023898424 
 4078000   0.68527923   -4.0042497   0.29629858   -2.7656922 -6.642915e-06 
 4079000    1.2590947   -4.0308728   0.49043325   -1.8091844 7.3183626e-05 
 4080000    1.0589398   -4.4253311   0.44459486    -2.524694 -5.3362219e-05 
 4081000     1.102566   -3.9359602   0.71740012   -1.7025318 0.0002064447 
 4082000   0.68356192   -3.0297906   0.48023446   -1.6096585 -8.2922543e-05 
 4083000    1.0660177    -3.969126   0.33975122   -2.1636004 0.00031453376 
 4084000    1.4424775   -4.2921064   0.51838515   -1.7903147 -0.00013770785 
 4085000   0.65429296   -4.1356543   0.33569287   -2.9003086 4.3390635e-05 
 4086000    1.0156147    -3.769906   0.55017746   -1.8232583 0.00032633699 
 4087000   0.71116663   -4.3970777   0.39845015   -3.0207734 0.00014057131 
 4088000    1.0142241   -3.8576166   0.55869344   -1.9043649 0.00031041296 
 4089000    1.4531593   -3.5697259   0.59378323   -0.9778486 0.00016700054 
 4090000   0.87239537   -3.7746248   0.39858144   -2.1764997 -0.00016767179 
 4091000   0.93364458    -3.932958   0.29051836   -2.3586783 -0.00021244511 
 4092000   0.98920971   -3.7825692   0.40001689    -2.022389 -8.0942258e-05 
 4093000   0.79125332   -3.5778084   0.69678828   -1.7930468 -0.00041169597 
 4094000   0.80902712   -4.1510242   0.82918982   -2.2094221 0.00031242227 
 4095000    1.1559457   -3.6290465   0.78408425   -1.2555369 -0.00028749886 
 4096000    1.1737341   -4.0172871   0.65208962   -1.7513131 -0.00028131515 
 4097000    1.3107171    -4.280231   0.30511408   -2.1728809 -7.5766888e-05 
 4098000    1.2838838    -3.640596   0.50736929   -1.3678866 0.00012208099 
 4099000   0.88394549    -4.056079   0.36008273   -2.4805712 -0.00015962072 
 4100000   0.96662523   -3.8971925   0.54927739   -2.0188054 -0.00036759532 
 4101000    0.9367025   -3.8039889    0.5845776   -1.9314454 0.00028813411 
 4102000   0.99177709   -3.9421559   0.46514152   -2.1133209 -0.00010068206 
 4103000    0.7184953   -4.1712699   0.44607431   -2.7372645 0.00027483328 
 4104000    1.1959982   -3.8926344   0.37650462   -1.8716323 -6.8768058e-06 
 4105000   0.97748298   -4.4043429   0.35138062   -2.7089232 -0.00010374738 
 4106000    1.2885512   -4.3436742   0.17164968   -2.4002667 0.00012194814 
 4107000    1.2651427   -4.1714141   0.55635188    -1.875491 -8.1106463e-05 
 4108000   0.89151252   -4.1463575   0.49459834   -2.4259295 -0.00018804832 
 4109000    1.1825835   -3.1544081   0.17308144   -1.3552744 -0.00028839024 
 4110000   0.88735176   -4.2149973   0.26583411   -2.7290545 3.6111341e-05 
 4111000    1.0506694   -3.6826686   0.28051483   -1.9574833 0.00032717696 
 4112000    1.3846004    -3.802492   0.47383139   -1.4248351 8.0154135e-05 
 4113000   0.80220129   -3.9927924   0.42610273   -2.4636629 -0.00022486594 
 4114000   0.74722615    -3.227719   0.61220408    -1.588079 -0.00037512814 
 4115000   0.92542189   -4.2774634   0.39082992   -2.6141783 0.00014697627 
 4116000   0.90683985   -4.0702067   0.72768599   -2.0956159 -0.00039434925 
 4117000   0.99339812   -4.0116569   0.24936192   -2.3963726 0.00015655398 
 4118000   0.92983137   -4.0480705   0.44266381   -2.3268885 -0.00029761362 
 4119000    1.2331772   -3.7128924   0.31280863   -1.7044651 -2.9000802e-05 
 4120000   0.88809308   -4.1977013   0.31645094   -2.6601224 0.00012330073 
 4121000    1.1264826    -3.719422   0.61522506   -1.5552833 0.00010071037 
 4122000    1.1886568   -4.0719672   0.40799733   -2.0295668 -0.00016117656 
 4123000   0.84683668   -4.3997592   0.60982331   -2.6255355 -0.00030584835 
 4124000    1.0904458   -3.6501652   0.20459323    -1.946209 0.00035188849 
 4125000   0.75337595   -3.6532382    0.3410345   -2.2763117 1.5723845e-05 
 4126000   0.73199711   -3.9994937   0.45646711   -2.5365305 5.3611588e-05 
 4127000    1.1134088   -3.6879022   0.41480922   -1.7421559 -0.00022830313 
 4128000   0.95846627    -3.726404   0.25926239   -2.1492505 0.00059009168 
 4129000   0.72190571    -4.176813    1.0983644   -2.0858282 -0.00031094759 
 4130000    1.0430469   -4.2524023   0.81649786   -2.0017149 0.00031380099 
 4131000   0.80416253   -4.4509523   0.62801647   -2.7172123 -0.00028499673 
 4132000    1.0511829   -4.0982445   0.43262894   -2.2202391 -0.00044349659 
 4133000    1.1975567   -4.5195445   0.66578185   -2.2071222 -0.00024860872 
 4134000    1.4851227   -4.3364907   0.45225095    -1.842196 8.5578554e-05 
 4135000    1.0711544   -4.1183751   0.51609945   -2.1294383 4.8755937e-05 
 4136000   0.86844276   -3.7202384   0.70547148   -1.8206582 0.00013720758 
 4137000   0.68029046   -3.5095914   0.37444871   -2.1997433 0.00022684412 
 4138000     1.039948   -3.8145334   0.39820865   -1.9863963 1.4576653e-05 
 4139000   0.83056155    -4.382136   0.22545649   -3.0146574 0.00028360498 
 4140000   0.73804737   -3.8287964   0.50091472   -2.3130666 -0.0002351388 
 4141000   0.76792635   -3.8495612   0.20112492   -2.5925375 -0.00010327131 
 4142000   0.95953474   -3.3473073   0.39906182   -1.6288852 -0.00023626827 
 4143000   0.48973768   -4.0381032   0.39767018   -2.9670438 0.00017958577 
 4144000    1.2788429   -3.9380436    0.2518056    -1.927829 -5.5670579e-05 
 4145000    1.2072059   -4.4821179   0.61096636   -2.2112434 -8.9116034e-05 
 4146000    1.1447146   -3.9072206   0.67722451   -1.6560135 -5.3702512e-05 
 4147000    1.6299884   -4.3940341   0.45018408    -1.702616 0.00020524359 
 4148000    1.7631834   -3.9542469    0.3963034   -1.1335662 0.00023582758 
 4149000   0.71131669   -4.0486373   0.52670133   -2.5438755 7.2951463e-05 
 4150000    1.7198426   -4.1722181   0.57152121   -1.2359133 -4.1477707e-05 
 4151000   0.91662577   -3.8020861   0.34859643   -2.1931293 0.00013572406 
 4152000    1.0335977   -4.1466991    0.3809716   -2.3445306 0.00013917538 
 4153000    1.2170222   -3.9291277   0.35172598   -1.9039962 -0.00019157104 
 4154000    1.0402867   -3.9017041   0.68477505   -1.7865348 -3.4971952e-05 
 4155000    1.4820034    -4.396691   0.27871544   -2.0802208 0.00019200735 
 4156000   0.87801808   -4.4326566   0.34851748   -2.8768643 0.00040483231 
 4157000   0.99523222   -4.2738965    1.0935799   -1.8118723 -0.0001506156 
 4158000   0.79378356   -4.0511299    1.0455574   -1.9141201 -0.00042181074 
 4159000    0.8414792   -3.7641687   0.30248962   -2.3046452 5.8144392e-05 
 4160000    1.0246181   -3.9400744   0.45022691   -2.0809976 -0.00015122362 
 4161000    1.1322385   -3.6605494   0.41393505   -1.6897864 0.00034847259 
 4162000    1.2733095   -4.3112142   0.33604412   -2.2243695 0.00054903643 
 4163000    1.2657042   -3.7896229   0.63207044   -1.4172091 5.8718982e-05 
 4164000   0.65252207   -4.0072793   0.28042016   -2.8296413 0.00036054239 
 4165000    1.0999626   -4.3266331   0.81352676   -2.0006577 -0.00032324669 
 4166000   0.82497392   -4.2078081   0.40176693    -2.671702 -1.5424774e-05 
 4167000   0.62677704   -4.1026717   0.36024013   -2.8806131 0.00018400355 
 4168000    1.0488339   -3.9314264   0.27160951   -2.2176703 0.00029529116 
 4169000   0.95624499   -3.6436966   0.38502523   -1.9438345 -0.00021972738 
 4170000    1.1516391   -3.9894725   0.34104448   -2.0649243 7.1441241e-05 
 4171000   0.98569838   -4.4216261   0.19211079     -2.87418 -2.6849407e-05 
 4172000   0.94858865   -4.1094563    0.3694925   -2.4356544 0.0001352027 
 4173000    1.0747793   -3.5796503   0.47444844   -1.6273803 -1.5999402e-05 
 4174000   0.99872736   -4.1934157   0.72174038   -2.0984252 -0.00033422884 
 4175000   0.83749291   -4.2309957   0.58296288   -2.4964801 -0.00018702373 
 4176000   0.91997991   -3.6008195    0.7416869   -1.5941602 -0.00067487988 
 4177000    0.7757824   -3.9734225   0.42906042   -2.4776612 -7.2592975e-05 
 4178000   0.90333277   -3.9557104   0.48907151   -2.2245563 0.00026868878 
 4179000    1.0054217   -3.8378136   0.47945536   -1.9759035 4.8194304e-05 
 4180000   0.75845214   -3.5731394  0.082385395   -2.4478823 6.6073173e-05 
 4181000   0.72721533   -3.7356147   0.71833299   -2.0173606 -9.3759442e-05 
 4182000    1.0726482   -3.0156418   0.25632265   -1.2844279 2.0297481e-05 
 4183000    1.1995799   -3.9158564   0.20028305   -2.0661511 9.4142573e-05 
 4184000    0.7837085   -3.6951609   0.45054517   -2.1670165 -0.00030364025 
 4185000   0.91352445   -4.0077522   0.25674457   -2.4949115 0.0001987598 
 4186000   0.93639453   -4.1950923   0.45969038   -2.4478594 -6.5090621e-05 
 4187000   0.91091694   -3.4864943   0.55657372   -1.6774098 -0.00017820689 
 4188000   0.99385325    -3.886063   0.58128745   -1.9382273 -1.424296e-06 
 4189000    1.1548967   -3.5210462   0.47134535   -1.4617179 0.00052712035 
 4190000   0.72327223    -4.004087   0.30227743   -2.7073103 -0.00011093109 
 4191000    1.0760135   -4.1427938   0.28557318    -2.377702 -0.00011231907 
 4192000    1.2735575   -4.1966989   0.88195552   -1.5636018 8.4246731e-05 
 4193000    1.1545047   -4.0428858   0.14199318   -2.3134487 0.00013950907 
 4194000    1.3412678   -3.8179879   0.32659834   -1.6471463 2.4212331e-05 
 4195000   0.73996828   -3.6722635   0.40017182   -2.2546353 0.00024037523 
 4196000    0.7732361    -4.018463   0.49353959   -2.4617238 5.2057903e-05 
 4197000   0.98988466   -4.0299584   0.28124702     -2.38762 4.0102935e-05 
 4198000    1.0532172   -3.9721487    0.3041837   -2.2197914 0.00035598139 
 4199000   0.76560022   -3.5586632   0.16825743   -2.3377055 0.00039814259 
 4200000   0.69467252   -4.1617472   0.35800535   -2.8485671 0.00010485605 
 4201000    1.1473561   -4.0906992   0.37196301   -2.1411215 -0.00013102734 
 4202000   0.81146752   -3.9743356    0.5643704   -2.2941974 5.8923875e-05 
 4203000    1.0883963   -3.9954611   0.90296833   -1.5959477 -0.00041535434 
 4204000   0.97187424   -3.5649307   0.46572389   -1.7628797 -2.1672769e-05 
 4205000   0.80658277    -3.200758   0.36843466    -1.723272 0.00014254719 
 4206000   0.93025832   -3.9885838   0.58399986   -2.1254788 -8.709573e-05 
 4207000    1.0773106    -3.812528   0.18938734   -2.1418385 9.9044669e-05 
 4208000    1.0689851   -3.8637641   0.25770763   -2.1362019 6.2517064e-05 
 4209000   0.76619918   -3.2171446   0.90834586   -1.2552749 -0.00043146255 
 4210000    1.0580631    -3.999909   0.30803637   -2.2370359 0.00036088863 
 4211000   0.90971433   -4.3084291   0.33126649   -2.7263054 1.3217402e-05 
 4212000    1.2197331   -3.7659078   0.25214607   -1.8366287 -0.00017938006 
 4213000     1.012891   -3.4478072   0.15893989   -1.8961422 4.2068271e-05 
 4214000   0.67303945   -3.9643912   0.47798625   -2.5609757 -0.00023937335 
 4215000      1.17277   -3.6590679   0.69866866   -1.3478405 -0.00030962847 
 4216000   0.99641901   -3.2715284   0.29324123    -1.608211 7.1445526e-05 
 4217000   0.80437532   -3.3087993   0.48680146   -1.7159818 -8.4078559e-05 
 4218000    1.3907005   -3.8328779   0.51106119   -1.4096036 0.00019971711 
 4219000     1.459305   -3.8024458   0.52111611   -1.2747852 0.00019294295 
 4220000     0.960467   -3.8390838   0.53643531   -1.9820064 -0.00022922387 
 4221000    0.5744637   -3.9846331   0.22441156    -2.970334 0.00010407582 
 4222000    1.2750649   -3.7321999   0.26799187   -1.7109938 0.00050812275 
 4223000   0.95149311   -3.6257501   0.52842723   -1.7890198 -0.00018383502 
 4224000    1.0282625    -4.228114    0.2264171    -2.587836 0.0004502741 
 4225000    1.0867244   -3.8040805   0.37727092   -1.9325635 -0.00024572666 
 4226000   0.90414107   -4.1040871   0.24785425   -2.6130388 -7.0824356e-05 
 4227000   0.97887447    -4.003909   0.30241589   -2.3555408 0.00033082846 
 4228000   0.87138623   -3.9451591   0.59437638   -2.1526267 -1.1446018e-05 
 4229000    1.3450672   -4.0163987   0.27590336    -1.891028 0.00010411748 
 4230000    0.6538257   -4.1626804   0.51234321   -2.7513269 0.00018703347 
 4231000   0.86676243   -3.5282039   0.46705786   -1.8693477 0.00028371656 
 4232000   0.83461577   -4.1140884   0.15137249   -2.8151192 0.00019481938 
 4233000    0.9195234   -3.4331167   0.47777228   -1.6909998 -8.8812089e-05 
 4234000    1.1057141   -4.1003088   0.48357511   -2.0963769 -8.5251203e-05 
 4235000   0.66869888   -3.7364502    0.2790045   -2.5379847 0.00044769993 
 4236000    1.1174776   -4.0990017   0.34558948   -2.2168804 -8.115889e-05 
 4237000    1.1289107    -3.385601   0.58129156   -1.2520573 0.00013564501 
 4238000   0.75836602   -3.6489812   0.87415726   -1.7320707 0.00011402481 
 4239000   0.98396768   -4.2026388   0.55601547   -2.2936677 0.00013594931 
 4240000    1.2383607   -3.7246287    0.3060016   -1.7158811 0.00024004931 
 4241000    1.0786064   -4.2383676   0.23639897   -2.5188848 -0.00013050602 
 4242000    1.0580146   -4.3079163   0.50886768   -2.3442786 0.00035025222 
 4243000    1.0014096   -3.6472253   0.98949381   -1.2807933 -0.00048818395 
 4244000    1.1089449   -3.5412591   0.20389433   -1.8125655 0.00031116231 
 4245000   0.61832825   -4.3429371   0.37243479   -3.1203009 0.00020241747 
 4246000    1.0350429   -4.0985512   0.74012813   -1.9352391 -0.0001966225 
 4247000   0.57604395   -2.6851593   0.39595447   -1.4971444 0.00027272235 
 4248000    0.8613456   -4.3402547   0.55981101   -2.5960935 -0.00015228965 
 4249000   0.93383604   -3.9544263   0.35572962   -2.3146721 0.00037811905 
 4250000    1.0427913   -3.9651677   0.52646372    -2.004866 4.8234975e-05 
 4251000    0.8628828   -4.1545705   0.44033958   -2.5277671 1.9445494e-05 
 4252000    1.2109802   -4.2152629   0.87759058   -1.6725745 -0.00020268451 
 4253000   0.99873883   -3.9732886    0.7925915   -1.8074312 -1.1077095e-05 
 4254000   0.57795774   -4.0248137   0.39453315   -2.8355887 -0.00026425765 
 4255000    1.0387443   -3.5136132   0.49550667   -1.5898331 -1.0173285e-05 
 4256000   0.70872175   -4.0001914   0.84800381   -2.1776952 -0.00049931226 
 4257000    1.0167218   -3.5187574   0.35746449   -1.7633004 0.00014535806 
 4258000    1.1689142   -2.9845875   0.57442182  -0.80290866 2.3642277e-05 
 4259000    1.0127714    -4.078743   0.56213876   -2.1240436 0.00042775827 
 4260000    1.3551337   -3.7925068   0.45359469   -1.4756032 1.3055104e-05 
 4261000   0.95198131   -4.0275383   0.41151637   -2.3070476 0.00038280702 
 4262000     1.142659   -4.0545719   0.39860861   -2.0848072 -0.00031790588 
 4263000   0.87147712   -3.2327882   0.61613773   -1.4183695 -2.1507495e-05 
 4264000   0.84741531   -4.2830616   0.67044242   -2.4474232 -0.00016977296 
 4265000    1.1047381    -4.219692   0.82152089   -1.8791562 -0.00029230391 
 4266000    1.2786793   -3.3100389   0.37710076   -1.1747541 -0.00017708873 
 4267000   0.55878528   -3.7399309   0.78038343   -2.1912178 -0.00025465924 
 4268000   0.84957955   -3.6561982   0.40644918   -2.0815772 -0.0003606132 
 4269000   0.58524976   -3.9689072   0.76771436   -2.3964744 -0.00036134578 
 4270000   0.97963191   -3.3044063   0.37637184   -1.5810406 -1.3448323e-06 
 4271000   0.63730543   -4.2028298   0.48235747   -2.8441774 -0.0001059069 
 4272000   0.99088416   -4.0136911   0.60728211   -2.0439433 8.1413127e-05 
 4273000   0.59315048   -4.0454311   0.27277121    -2.957078 -0.00040337028 
 4274000    1.0521661   -3.9741172   0.58991489    -1.937474 0.00010699878 
 4275000    1.3647088   -3.3397815   0.31867247   -1.1446344 2.9437065e-05 
 4276000    0.9394566   -3.5945329   0.51068308   -1.7920971 -0.00012788195 
 4277000    1.0454992   -4.1983546    0.6570828   -2.1037103 -0.00039190828 
 4278000   0.99141382   -3.9912273   0.41032675   -2.2177065 0.0002542185 
 4279000   0.92161886   -3.9937861   0.56786482   -2.1586953 -0.00027221552 
 4280000   0.82764838   -4.2494535   0.19082829   -2.9206087 8.8671663e-05 
 4281000   0.90478933   -3.9442237   0.79657473   -1.9035637 -0.00033897406 
 4282000    1.3126642   -3.7055958   0.61164263     -1.28904 0.00014390746 
 4283000    1.2401684   -4.0472612   0.17805902   -2.1639706 0.00010203047 
 4284000   0.96545804   -3.6874819   0.57425488   -1.7857222 0.00031177955 
 4285000   0.56632621   -4.1655537    0.5835686   -2.8032865 -0.00012322318 
 4286000    1.1105003   -4.0267469   0.70300514   -1.7968039 -0.00015198973 
 4287000   0.58814809   -4.1996207    0.6136205   -2.7772966 -0.00026214269 
 4288000    1.1966371   -4.3582761   0.97538052   -1.7375196 -0.0003916785 
 4289000   0.96266066   -4.3505467    1.5481552   -1.4787331 -0.00022415381 
 4290000    1.0408326   -4.1444715   0.59419833   -2.1191283 -6.4177786e-05 
 4291000   0.84541054   -3.8106704     0.316216   -2.3320149 -0.00011479226 
 4292000   0.65935452    -3.386479    0.5243692   -1.9554973 -0.00022640731 
 4293000   0.85301116   -3.8887392   0.48127193   -2.2345769 0.00037545946 
 4294000   0.98555975   -3.8503883    0.2432136     -2.25203 -1.7574137e-05 
 4295000    1.0169609   -3.8346432   0.20099711   -2.2353248 -3.752697e-05 
 4296000    1.1447392   -3.8099782   0.26145003   -1.9745117 0.0002103988 
 4297000    1.1543115   -3.4688864   0.44817543   -1.4335327 -8.0798547e-05 
 4298000   0.91537465   -3.5119582   0.35936644   -1.8939516 -6.0414396e-05 
 4299000    1.0452548   -3.5925608   0.36572508   -1.7896103 0.00032655195 
 4300000   0.89561626   -4.4210795   0.58288439   -2.6067227 -0.00010220984 
 4301000    1.1752416   -3.9382634   0.69384339   -1.6284628 0.0001352501 
 4302000    0.8467432   -3.8011289   0.92823372   -1.7086233 -0.00024839308 
 4303000    1.0106543    -4.123202   0.11865269   -2.6148997 -9.3822048e-05 
 4304000   0.93224371   -4.0986475   0.54341112   -2.2734013 -0.00030499854 
 4305000   0.82888679   -4.2491698   0.76083379   -2.3486167 2.6588484e-05 
 4306000   0.83977884   -3.7102155   0.42948262   -2.1260369 -0.00012592727 
 4307000   0.96159688   -3.8550165   0.30531445   -2.2275063 -0.00016185023 
 4308000   0.74415363   -4.0601414    0.3877274   -2.6492027 2.4030764e-05 
 4309000   0.99951075   -4.2142188   0.49632759   -2.3435639 -0.00030546318 
 4310000    1.2420011   -3.5985956   0.51404239   -1.3768016 -0.00033875809 
 4311000    1.1617412   -4.1547295   0.51973854   -2.0375968 -0.00012642728 
 4312000   0.52449028   -3.7477505   0.60755411   -2.4190223 2.1227931e-05 
 4313000    1.2345034   -4.1666909   0.69442793   -1.7748208 -0.00032149666 
 4314000    1.0748067   -3.9237348   0.23965745   -2.2062181 0.00031601188 
 4315000    1.0621798   -3.8195311   0.33780795    -2.021226 0.00086678611 
 4316000    1.0390358   -3.8230062   0.41439774   -1.9799342 0.0001189639 
 4317000   0.69431612   -3.8001236   0.31056654   -2.5348724 -0.00024014217 
 4318000   0.86189769   -4.1796813   0.34111131   -2.6534607 -0.00021285032 
 4319000   0.80746437   -3.3210677   0.41736059   -1.7934436 -0.00013233079 
 4320000   0.95393063   -3.4503617   0.50401042   -1.6346967 3.2225425e-05 
 4321000    1.0385495   -4.0486616    0.3432866   -2.2773695 -0.0002719055 
 4322000    1.0293214   -3.8091969   0.49766367   -1.8962163 0.00019358681 
 4323000   0.77664777   -4.0667843   0.46081936   -2.5380743 5.2083775e-05 
 4324000   0.91749177   -3.3441469   0.29010581   -1.7924899 9.2026975e-05 
 4325000    0.7272256   -3.9087029   0.42658261   -2.4821851 0.00036794104 
 4326000   0.80481688   -4.1403218   0.75107896   -2.2826197 3.5075381e-05 
 4327000    0.6553544   -4.1890913   0.46392496    -2.824054 0.00034828193 
 4328000    1.2192089   -4.2815373   0.91653326   -1.6885918 -3.9292825e-05 
 4329000   0.94387855   -4.0659711   0.88002802     -1.88811 -0.00014702923 
 4330000    1.4463731   -3.6227511    0.6381278  -0.99586022 0.00010325814 
 4331000   0.82958897   -4.1536234   0.31019969   -2.7027388 0.00014071306 
 4332000    1.0413169   -3.7220086   0.57554769   -1.7146502 0.00076513542 
 4333000   0.65382073   -3.7494565   0.27702374   -2.5734292 0.00022265554 
 4334000    1.1925836   -4.0068304   0.36225067   -2.0047773 -4.7739875e-05 
 4335000    1.2422246    -4.196635   0.36239369   -2.1261825 4.6962028e-05 
 4336000   0.90839161    -4.044646   0.38413422   -2.4114733 0.00017363375 
 4337000   0.92532079   -3.9682316   0.36394262   -2.3319728 -0.00019857326 
 4338000    1.7047956   -4.3809384     0.528607   -1.5082373 -0.00010489209 
 4339000    1.0473575   -4.2340472   0.34517058   -2.4487601 7.9990838e-05 
 4340000    1.4215951   -4.3496579   0.64398025   -1.7509844 -0.00017775167 
 4341000    1.0819743   -3.9630423    0.4454167   -2.0299109 0.00012653985 
 4342000    1.3844233   -3.8796652   0.29173244   -1.6843507 0.00016899672 
 4343000     1.273914   -4.0786438    0.3109469   -2.0160651 -0.00030169231 
 4344000    1.2393196   -4.2597501    0.4368578   -2.1188278 8.3067365e-05 
 4345000    1.0399143    -4.072205   0.22573777   -2.4165851 8.2004533e-05 
 4346000    1.1242001   -4.2029048   0.78171804   -1.8754117 -0.00010782448 
 4347000    1.3863358   -3.8029403   0.26487131   -1.6318573 0.00038366506 
 4348000   0.56437492   -4.2059745   0.46816606   -2.9617929 0.00031228967 
 4349000    1.0930967   -3.6943354   0.71142486   -1.4799026 7.7487022e-05 
 4350000   0.75052731    -4.087277   0.64758959   -2.4077123 6.5280606e-05 
 4351000     1.284714   -3.6726404   0.35679291   -1.5493657 0.00017452818 
 4352000     1.263174    -4.056514   0.71227634   -1.6073733 -0.00015717841 
 4353000   0.94965565   -4.0130163   0.59268882   -2.1145509 -0.00022463452 
 4354000    1.4172907   -3.7062111   0.48381449   -1.2736219 0.00015505058 
 4355000    1.1554942    -4.303022   0.58818626   -2.1260312 -0.00014892233 
 4356000   0.88155339   -3.9628946   0.33902448   -2.4117342 9.0399393e-05 
 4357000    1.6620646   -4.3714792   0.27489518   -1.8112451 0.00011010425 
 4358000   0.38733705   -3.0883431    0.2081835   -2.3475712 -5.4182701e-05 
 4359000    1.3897198   -2.8523526   0.43728755  -0.50420029 -3.4538484e-05 
 4360000    1.3437408   -3.7886757   0.55090668   -1.3901254 -0.00017912904 
 4361000   0.76043411   -4.0669718   0.40189173   -2.6194831 -0.00010213886 
 4362000    1.2749263   -4.1541725   0.55054401   -1.8506047 3.061995e-05 
 4363000   0.65456359   -4.0305427   0.78921973    -2.341298 0.00017831447 
 4364000    1.1446684   -3.9711521   0.32032591   -2.0769072 -0.00020428232 
 4365000    1.0638384   -3.9727266   0.63994862   -1.8700001 0.00021773643 
 4366000   0.94839608   -4.0830403   0.33854584   -2.4404499 0.00030044094 
 4367000    1.0642356   -3.2351376   0.62293786   -1.1488758 -4.8415945e-06 
 4368000    1.0318268   -3.6779404   0.59983468   -1.6593439 0.00018165051 
 4369000    1.0373973   -3.6767242   0.61943448   -1.6308684 -0.00014069272 
 4370000   0.85911363   -3.9627358   0.67027175   -2.1111828 9.151227e-05 
 4371000   0.94611672   -3.9501915   0.26848061   -2.3808004 -3.5727839e-05 
 4372000   0.69007189   -3.2175537   0.40378012   -1.8649248 -6.6876313e-05 
 4373000    1.0081008   -3.7926117   0.32298131   -2.0834918 2.5556375e-06 
 4374000   0.83442388    -4.088846   0.93700996   -2.0045032 0.00016805427 
 4375000    1.0469932   -3.0952335   0.78334516  -0.87227277 -0.00018630779 
 4376000    1.3013307    -3.408372   0.33299715   -1.2860451 0.00031724794 
 4377000    1.2579621   -4.1487353   0.65601202   -1.7630254 -0.00018211458 
 4378000   0.51628392   -4.1048115   0.61688236   -2.7780388 -0.00034931206 
 4379000    1.0173243   -3.7971539   0.72736308   -1.6709699 -0.00030999004 
 4380000   0.94385244   -3.8535458   0.74899302   -1.8067557 -0.00017528075 
 4381000    1.4325714   -3.6301003   0.25538381   -1.4049308 -0.0001327654 
 4382000    1.1867967    -4.243227   0.63014438   -1.9812371 -0.00029479079 
 4383000   0.71844578   -4.0312636   0.75344516   -2.2899555 -0.0002537127 
 4384000    1.1053867   -4.1554339   0.80653387   -1.8289934 -5.4431598e-05 
 4385000    1.0418431   -3.2860511   0.19459743   -1.6589194 0.00016353459 
 4386000   0.94827713   -4.1430937   0.62764738   -2.2115652 -0.00015091549 
 4387000   0.57961317   -4.0260866   0.87516177   -2.3539567 4.859662e-05 
 4388000   0.87144578   -4.0964386   0.85771076   -2.0404899 -0.00014194098 
 4389000    1.0879651   -4.0074892   0.66191575   -1.8496214 8.0290887e-05 
 4390000   0.54531171   -4.1295222   0.33490687   -3.0448118 -0.00021386605 
 4391000   0.83060416   -4.0637845   0.60307909   -2.3186247 -0.00013388118 
 4392000    1.4234062   -3.6908645   0.85144783  -0.88223316 -0.00014827692 
 4393000    1.0999127   -4.3744125   0.56419197   -2.2978405 0.00023575539 
 4394000    1.0429015   -3.8659231   0.37446531   -2.0574681 1.6720624e-05 
 4395000    0.9521883   -4.0322311   0.40413868   -2.3188335 -0.00015010415 
 4396000   0.85420954   -3.9898334    0.7906164   -2.0246789 0.00016606016 
 4397000    1.0774072   -3.7247358   0.55749047   -1.6858103 -0.0002893443 
 4398000    1.0526652   -3.1677799   0.52852065   -1.1918446 -0.00015320819 
 4399000   0.97129814   -4.0312184    0.5537635     -2.14192 0.00032261436 
 4400000    1.0551893   -3.9725652   0.36453471   -2.1571452 -0.00015970768 
 4401000    1.4394934   -4.1306021   0.31381726   -1.8374815 0.00016257708 
 4402000    1.4104771   -3.8832824   0.46675812   -1.4771182 2.085847e-05 
 4403000   0.70967155   -4.1325178   0.54781086   -2.6089085 0.00044044262 
 4404000   0.93248529   -4.1945722   0.58161711   -2.3307878 -9.5718572e-05 
 4405000    1.2293045   -3.6325192    0.3624227   -1.5798028 0.00035893134 
 4406000   0.87539932   -3.7413446   0.49521263   -2.0424579 0.00042452552 
 4407000   0.74805925   -3.9257728   0.74874117   -2.1484501 0.00020012538 
 4408000    1.3590321   -3.8129604   0.49321215   -1.4510791 0.00014639579 
 4409000    1.5689109   -3.5067417   0.38629699  -0.96319219 1.0180337e-05 
 4410000   0.76106316   -4.0790642   0.69523385   -2.3373685 0.00017417357 
 4411000   0.78953052   -4.1423447   0.70828324    -2.348457 -0.00031451568 
 4412000   0.94442591   -4.4453512   0.32180722   -2.8249584 -7.326251e-05 
 4413000    1.1981461   -4.0427597   0.57022014   -1.8250886 -0.00029768244 
 4414000   0.96560418   -3.6709632    1.0040216   -1.3392359 -0.00044642372 
 4415000   0.68132834   -3.7972732   0.85544881   -2.0049979 -0.00031250744 
 4416000    1.2885217   -3.9933401    0.3135471   -1.9080757 -0.00015068101 
 4417000     1.365996   -3.5343286   0.21412945   -1.4419546 -2.6131121e-05 
 4418000    1.1970016    -3.946104   0.40542113   -1.8948056 0.00013625769 
 4419000    1.0040148   -3.9470013   0.42152907   -2.1449519 -0.00015705391 
 4420000    1.1034268   -3.6824194   0.24716044   -1.9180471 -7.4030459e-05 
 4421000   0.66912765   -3.9763402   0.64033045   -2.4159592 -2.1681347e-05 
 4422000   0.84830758   -3.8511054   0.50639307   -2.1782894 0.00017680715 
 4423000    1.0855696   -3.8369715   0.30811424    -2.036199 0.00038929385 
 4424000   0.77237914   -4.1835287    0.3737888   -2.7477186 0.0001112232 
 4425000     1.063348   -3.6142953   0.39846949   -1.7537222 0.00019543169 
 4426000     1.197039   -4.1865656    0.2329342   -2.3077028 -4.2171546e-05 
 4427000    1.3678292    -3.981682   0.48749916   -1.6134177 -6.9363623e-05 
 4428000   0.82467511   -2.8972302   0.17599258   -1.5873093 -0.00010047792 
 4429000   0.75217848   -4.2092613   0.42113001   -2.7538858 -4.8658636e-05 
 4430000    1.0466317   -3.7478145   0.65727467   -1.6514212 0.00022895817 
 4431000    1.2466744   -4.4554932   0.92663983   -1.8146761 -5.4223361e-05 
 4432000    1.3202899    -4.058681    0.9192757   -1.3240067 0.00021831544 
 4433000   0.80737474   -3.6842853   0.51113597   -2.0630091 0.00028713061 
 4434000   0.65491043   -3.9401652   0.32460283   -2.7150605 9.8793009e-05 
 4435000   0.84440873   -3.9358835   0.62091261   -2.1539088 -0.00028549762 
 4436000    1.3971767   -4.2182624    1.0009043   -1.2962401 -0.00017324478 
 4437000    1.5075907   -4.3017338   0.35358517   -1.8752114 -7.4058467e-05 
 4438000   0.88687661   -3.7437384   0.30162761   -2.2226554 -0.00015121394 
 4439000    0.6927959   -3.8509412   0.37201493   -2.5263319 0.00022885432 
 4440000   0.64386084   -4.0357582   0.62318625   -2.5272633 0.00038606872 
 4441000    1.2026097   -4.1937631   0.53453945   -2.0056354 0.00024202757 
 4442000    0.9058264   -4.2940356    0.2882257   -2.7602986 0.00016841431 
 4443000    1.0342788   -3.3374796    0.6220494   -1.2932969 -1.7962085e-05 
 4444000    1.3476872   -3.9673417   0.53366942   -1.5806024 0.00016652611 
 4445000   0.88591587   -4.0260366   0.59939943   -2.2085028 -0.00024455728 
 4446000   0.85544176   -4.1991027   0.84738002   -2.1754902 -0.00035341141 
 4447000   0.71867598   -4.1158185   0.81221989   -2.3154191 -2.8562882e-05 
 4448000   0.54657629   -3.7857954   0.39308469   -2.6411683 -0.00010650346 
 4449000   0.95038279    -3.850216   0.47052396   -2.0729157 -0.00037389736 
 4450000    1.1052712   -3.0360116   0.23107706   -1.2851866 -3.3582932e-05 
 4451000    1.0040667   -3.7619144   0.37984369    -2.001479 0.00010751182 
 4452000   0.82481512   -3.9754502   0.48848659   -2.3528428 -0.00020394638 
 4453000   0.84049686   -3.5912701   0.42430989    -2.011277 0.00035947598 
 4454000   0.97903284   -3.4083215   0.50285256   -1.5592988 0.0001797526 
 4455000   0.85716673   -4.2502665   0.61840583   -2.4532564 0.00040656458 
 4456000    1.0266841   -3.8452954   0.51991509   -1.9136897 0.00028648559 
 4457000   0.83104354   -3.5478069   0.69626357   -1.7088585 -0.00029828511 
 4458000    1.0134326   -3.8220144   0.70116947   -1.7273752 -8.7995703e-05 
 4459000     1.358521   -3.8002509   0.50460616   -1.4276784 -0.00024003142 
 4460000   0.70339707   -3.8451186   0.30599793   -2.5719497 -0.0002026291 
 4461000    1.1131186    -3.706182   0.57402036   -1.6016236 -0.00021681477 
 4462000   0.54258457   -4.0570267   0.46300448   -2.8479684 -0.00015719887 
 4463000   0.87063626   -3.6570683   0.29018367   -2.1697598 0.00021641133 
 4464000   0.84206953   -4.1580971   0.39597048    -2.604281 -6.5857291e-05 
 4465000    1.2010323   -3.8608938   0.34751296   -1.8619615 -2.9358219e-05 
 4466000    1.2159244   -3.5061377   0.46528996   -1.3689516 2.0837451e-05 
 4467000     1.010614   -3.5068183   0.65355181   -1.4636723 0.00013588333 
 4468000   0.70327151   -3.9319254   0.21306105    -2.751866 3.5776897e-05 
 4469000    1.1407542   -3.5916041    0.3402804   -1.6827866 0.00025243063 
 4470000    1.1145771   -3.8747372   0.37786215   -1.9643315 9.3493008e-05 
 4471000    1.4490074   -4.1921922   0.35982466   -1.8399823 9.7511989e-05 
 4472000    1.2014617   -4.0550053    0.6062039   -1.7967915 -0.00028541856 
 4473000   0.63373397   -4.2646294   0.40104296   -2.9922023 -1.5729695e-05 
 4474000    1.3090288    -3.937459   0.47256452   -1.6649799 -0.00029190199 
 4475000    1.0163239   -3.8000016   0.73433184   -1.6682245 -0.00032830857 
 4476000   0.96224648   -3.5738181   0.70364145   -1.5470877 -9.1959989e-06 
 4477000   0.95422192   -3.8670073   0.70635185   -1.8486003 -0.00015285927 
 4478000   0.94517703   -4.1703115   0.31950936   -2.5511838 -3.3202394e-05 
 4479000    1.0496658    -4.288924   0.53296673   -2.3126669 -0.00023126701 
 4480000    1.1647117   -3.3599198   0.93661808  -0.82182321 -8.2304524e-05 
 4481000   0.72108593   -3.6753982    0.4997046   -2.1842005 -0.00017482512 
 4482000   0.75561049   -3.9916737   0.60939242   -2.3433169 0.00020317104 
 4483000    1.0701165   -3.5232715   0.59796109   -1.4539002 0.0001331824 
 4484000   0.84504696   -3.7024166   0.23613384   -2.3043432 0.00030085098 
 4485000    1.6470462   -4.2014275   0.79998883   -1.1367501 -0.0002609633 
 4486000   0.92392945   -3.7133825   0.95133437   -1.4916452 -0.00039805539 
 4487000   0.96029931   -4.3766801   0.45492118   -2.6013474 4.6021885e-05 
 4488000   0.85186493   -3.6810628   0.41681629   -2.0929322 -0.00022526384 
 4489000    1.4716895    -4.078738   0.41465858   -1.6405063 0.00035355457 
 4490000   0.84402957   -3.6353083   0.31855087   -2.1562167 -0.00016030739 
 4491000   0.76219828   -3.9452312   0.52511978   -2.3720888 3.4593791e-05 
 4492000   0.89500155   -4.0061859   0.86423209   -1.9113266 -0.00074622525 
 4493000   0.93553887   -3.8327936   0.77705892   -1.7693687 -0.00010746627 
 4494000    1.4135962   -3.9798017   0.54014189   -1.4959651 -5.8015036e-05 
 4495000    1.2002002   -4.1094164   0.53715572   -1.9219854 -5.8819217e-05 
 4496000    1.0394287   -4.3300304   0.14946042   -2.7513556 0.00041301546 
 4497000    1.0804388   -4.1860903   0.31307304   -2.3874139 0.00015255798 
 4498000   0.92539616   -3.9844758   0.48493213   -2.2271239 0.00021753688 
 4499000     1.065453   -3.4855827   0.21205424   -1.8085306 0.00064882315 
 4500000   0.92118086   -3.9412022   0.42096314   -2.2536153 0.00016005078 
 4501000   0.59115834   -2.7531742   0.64895236   -1.2913792 -0.00025129769 
 4502000    1.0370534   -3.9134367   0.38357109   -2.1039171 0.00023377289 
 4503000   0.66429668   -3.5519255   0.52459708   -2.1139205 6.5855333e-05 
 4504000    1.2691448   -4.2607264   0.54278173   -1.9728706 -0.00029240674 
 4505000   0.58836189   -4.3638214    0.3838224   -3.1710014 -3.0656792e-05 
 4506000    0.7240702   -3.6297791    0.6981833   -1.9359993 0.0001225371 
 4507000    1.4215205   -3.8229599   0.48932656   -1.3790427 6.5079847e-05 
 4508000     1.022674   -3.5739656   0.43327645   -1.7345124 0.00040073918 
 4509000   0.68930171   -4.1711061    0.1664004   -3.0569159 0.00011054249 
 4510000    1.4538593    -3.950246   0.45346236   -1.4977271 -0.00017473368 
 4511000    1.1532323   -4.0472254   0.70775768   -1.7537733 -0.00024692247 
 4512000   0.78885166   -3.5261645   0.56518537   -1.8763081 0.0004560707 
 4513000   0.86611211    -4.363807   0.52941776   -2.6434851 -0.00013576624 
 4514000    0.6625994    -3.985045   0.33543302   -2.7385378 0.00047061504 
 4515000    1.3730244   -4.0232493   0.47885507   -1.6564856 0.00024665036 
 4516000   0.68935924   -3.7595247   0.41795948   -2.3936963 0.00022773987 
 4517000   0.92172701   -4.1772949   0.18446014   -2.7254602 0.00015088601 
 4518000    1.1419414   -3.3142784   0.55348179   -1.1906272 -0.00024390963 
 4519000   0.94376454   -4.2418321    0.9695275   -1.9746284 -0.00045105844 
 4520000   0.99418117   -3.6070152   0.25491735   -1.9850987 0.00011779678 
 4521000    1.1617754   -4.0208134   0.50973772   -1.9136345 -0.00032966054 
 4522000    1.0435934   -4.0873173   0.38103828   -2.2713381 0.00037414749 
 4523000   0.81398616   -3.5063665   0.29670844   -2.0904271 -5.2846158e-05 
 4524000   0.98729741   -3.8706767   0.48380438   -2.0293384 7.800747e-05 
 4525000     1.242668   -4.2168892   0.38704534   -2.1211754 -4.347682e-05 
 4526000    1.0503816   -4.1168551   0.20082347   -2.4717569 -0.00012273227 
 4527000    1.0617444   -4.1460625   0.55332382   -2.1328402 -0.00060715905 
 4528000   0.93330133   -3.0789604   0.62541533   -1.1702558 1.2905974e-05 
 4529000   0.94024155   -3.7889655   0.64536416   -1.8507692 0.00012604323 
 4530000    1.2174998   -3.1646252    0.7339885  -0.75657451 0.00074686219 
 4531000   0.84146842   -3.1006825   0.47861183   -1.4650516 -6.6019914e-05 
 4532000   0.84491492   -4.0985403   0.65224242   -2.2845399 4.2778177e-06 
 4533000    1.2797469   -3.5020121   0.52441264   -1.2179475 0.00024273367 
 4534000   0.78995493   -4.0642862   0.62739746   -2.3507007 -0.00022233576 
 4535000    1.1983538   -3.8296839   0.59756142   -1.5843859 -8.3665784e-05 
 4536000    1.1273667   -3.9989388    0.5894019   -1.8594077 -0.00038487316 
 4537000   0.83334766   -3.8532885   0.41085893   -2.2965765 0.00014961366 
 4538000   0.68382465   -3.3351716   0.23753177    -2.157381 -1.4973127e-05 
 4539000    1.4840285   -4.0681936    1.0912667  -0.93638772 -4.5992981e-05 
 4540000    1.1669879   -4.1400407   0.55480006   -1.9806322 0.00011343787 
 4541000    1.1022485   -3.8648314   0.56289008   -1.7863497 -0.00020367391 
 4542000    1.2230298   -4.2178899    0.5605246   -1.9756992 -7.3866959e-05 
 4543000   0.69028417   -3.3503034    0.2412721   -2.1598906 2.1568419e-05 
 4544000    1.1161257   -3.6058472   0.51095977   -1.5602145 0.0002209045 
 4545000   0.99993965    -4.068718   0.61047622   -2.0833248 -0.00043137011 
 4546000   0.93225297   -3.7764022   0.39620663   -2.0983478 0.00028147801 
 4547000    1.2422276   -3.4393312   0.33510849   -1.3961597 -5.3400091e-05 
 4548000   0.76513731   -3.8471482   0.34682044   -2.4482639 -0.00015181472 
 4549000   0.99432536   -3.6963608   0.43962483   -1.8895386 -0.00013910363 
 4550000   0.71509975   -3.9383075   0.36279461   -2.5922507 -0.00012851874 
 4551000    1.2896483   -4.2478879   0.47585444   -1.9987671 -7.0821572e-05 
 4552000    1.3627264   -3.9568789   0.46394738   -1.6191828 0.00024384661 
 4553000    1.0358708   -3.8333876   0.29518877   -2.1138764 0.00016237785 
 4554000   0.77545339   -3.8688194     0.342771      -2.4598 6.3049574e-05 
 4555000   0.87124918   -3.5118099   0.78311657   -1.5307257 4.0861076e-05 
 4556000    1.0911645   -4.1078691   0.40860195    -2.198916 0.00035478879 
 4557000    1.3052784   -4.1663677   0.61419394   -1.7574159 9.189522e-05 
 4558000   0.58107445   -4.2222761   0.41893334   -3.0043654 -1.1540646e-05 
 4559000   0.91699826   -3.9650346   0.30816357   -2.3959985 -2.2831702e-05 
 4560000   0.69775385   -4.4866295   0.82306322   -2.7041548 -0.00036556009 
 4561000     1.243015   -4.3295758    0.8917974   -1.7286328 -0.00018560526 
 4562000      1.17472   -4.2931168   0.31449016   -2.3633866 -1.638305e-05 
 4563000   0.65053562   -3.4416301   0.46175112   -2.0853925 0.00023791189 
 4564000    0.8962011   -3.9691153   0.21559007   -2.5212487 2.8349972e-05 
 4565000   0.91970586   -3.8392926     0.609878    -1.964819 -0.00026636478 
 4566000   0.79664685   -3.6234813   0.40696914   -2.1211228 8.0453679e-05 
 4567000    1.0419935   -3.6508374   0.77219429    -1.445902 -1.0122082e-05 
 4568000    1.0778933   -3.2324219   0.85690121   -0.8934174 -0.00027292302 
 4569000    0.7217001   -3.7221949    0.4060992   -2.3237581 -0.00019961133 
 4570000   0.92044478   -3.7659772   0.82872039   -1.6716452 -1.4094036e-05 
 4571000    1.1805668   -3.4099492   0.27870351   -1.5079664 0.00025443335 
 4572000   0.52508639   -4.2991553   0.49423458   -3.0829269 -0.00010397094 
 4573000    1.3083163   -3.4713295   0.37567717   -1.2967175 0.0001077111 
 4574000    1.1376522   -4.3750761   0.35879385   -2.4520104 0.00016132342 
 4575000   0.76466618   -3.8076278   0.49031625   -2.2658956 0.00016551155 
 4576000    0.5942002   -4.1401371   0.22265804   -3.1004538 -4.6106598e-05 
 4577000    1.0214831   -3.4807463   0.30971217   -1.7664949 -0.00014080517 
 4578000   0.97117059   -4.1656847   0.41144934   -2.4188758 2.9105484e-05 
 4579000   0.72947381   -3.0665321   0.97935384   -1.0841517 0.00031014219 
 4580000    1.1900115   -3.6685515   0.78654294   -1.2457427 0.0004876452 
 4581000   0.63772377   -3.8024474   0.54928868   -2.3762886 0.00074824127 
 4582000   0.96178474   -3.7753202   0.41733729   -2.0355289 -0.00015657364 
 4583000    1.3607954   -3.5984884   0.96301171  -0.76438295 -1.132174e-05 
 4584000    1.3367382   -4.2084363   0.34081324    -2.029608 0.00048817831 
 4585000     1.041402   -3.8633583   0.52807364   -1.9033569 0.00039918476 
 4586000    1.2182665   -3.7948465   0.73025147   -1.3894787 -0.00017458958 
 4587000    1.2471588   -3.9482023   0.55607534   -1.6772836 -8.7142244e-05 
 4588000     0.701949   -3.3055748   0.25774814   -2.0826468 0.00033780725 
 4589000    1.0472945   -4.0038384   0.46446232   -2.0993461 0.00013406192 
 4590000    1.4357537    -3.667752  0.072029967   -1.6215607 7.0124511e-05 
 4591000   0.81722108    -3.846098   0.63840595   -2.0840131 -0.00017106253 
 4592000   0.97593416   -4.1683717   0.37177737   -2.4546849 -0.00017393888 
 4593000    1.1351234   -4.2112156    1.0189707   -1.6314502 -1.1035679e-05 
 4594000   0.85921621   -4.2860397   0.52048179   -2.5841356 -5.0299062e-05 
 4595000     1.085333   -3.9962177   0.70914439   -1.7947404 0.00043616139 
 4596000    1.0331649   -3.9917866   0.12935695   -2.4418279 0.00014408685 
 4597000    1.0569644   -4.4773155    0.7036514    -2.320338 2.2168597e-05 
 4598000   0.66370768   -3.6699573   0.73985358   -2.0175057 -6.6213916e-05 
 4599000    1.1550519   -4.1803205   0.31571635   -2.2764077 0.00025906436 
 4600000   0.57575053   -3.6907895   0.35701806   -2.5421145 -0.00014485836 
 4601000   0.81756914    -3.495216   0.45964158   -1.9114168 0.00020310347 
 4602000   0.60366047   -4.1998871   0.51464066   -2.8552133 -1.102198e-05 
 4603000   0.93777531    -3.631992    0.1801083   -2.1624427 -0.00010645473 
 4604000   0.97772154   -3.2771851   0.70455592    -1.228262 -5.3541941e-05 
 4605000    1.2939208   -4.1354506   0.43542018   -1.9208893 -0.00039311812 
 4606000    1.0336862   -4.3562538   0.24405189   -2.6908834 -4.1517104e-05 
 4607000    1.3466955   -3.5549793   0.31123283   -1.3920402 2.9189945e-05 
 4608000    1.1417701   -3.3500132   0.23057622   -1.5495031 6.3243431e-05 
 4609000   0.85611114   -3.7163513   0.42726501   -2.1119335 -0.00011458702 
 4610000   0.36929732   -3.8471626   0.58123814   -2.7581407 -0.00010541184 
 4611000    1.1721692   -3.5566287   0.46608966   -1.4788065 0.00015073726 
 4612000   0.73193929   -4.1087468   0.61777957   -2.4845507 0.00019664782 
 4613000    0.8587705   -3.3316477   0.37488834   -1.7759499 -0.00010948556 
 4614000    1.1037617   -4.2139236   0.40937098   -2.2868803 -0.00010314983 
 4615000   0.89729948   -2.9145896    0.4193575   -1.2614453 0.00019424823 
 4616000    1.1253062   -2.8132677   0.51061567  -0.75535599 0.00015644211 
 4617000   0.90312454   -3.8096212   0.50209996    -2.065725 0.00031431945 
 4618000   0.62116519   -3.9041998    0.5074411   -2.5426565 -8.8186742e-05 
 4619000    1.0136279   -4.1432156   0.35208814   -2.3973891 0.00014359355 
 4620000    1.2308839   -3.1202475   0.31788488   -1.1098972 -0.00015607297 
 4621000    1.1686549   -3.8894385   0.30809221   -1.9744458 -6.7736484e-05 
 4622000    0.7474541   -3.9276849   0.59947934   -2.3004561 0.00018883042 
 4623000    1.0664677   -3.7745588   0.46563612   -1.8425297 -4.1046448e-05 
 4624000    1.2074061   -3.7496114   0.69983772   -1.3895903 -5.1121369e-05 
 4625000    1.1384256   -4.0123509    0.5615335   -1.8854822 0.00013734799 
 4626000   0.89405131   -4.2581913   0.71799085   -2.3108799 -0.00017172993 
 4627000    1.2200662   -4.1716981   0.88502372   -1.6090834 -0.00015811313 
 4628000    1.0942399   -4.0899394   0.68669433   -1.8986652 -0.00031611435 
 4629000   0.95070427   -4.2552327   0.37150869   -2.5765056 -0.00016819317 
 4630000   0.94836358   -4.1667514   0.77727877   -2.0854727 -0.0002533771 
 4631000    1.3892708   -4.4273747   0.36432395   -2.1528035 0.00018928336 
 4632000   0.47214737   -3.7406506   0.44830648   -2.6431415 -0.00027583133 
 4633000    1.1478009   -3.7039628   0.76578459   -1.3599519 -0.00010756294 
 4634000     0.998654   -3.6026508   0.34753983   -1.8819618 0.00043083875 
 4635000    1.2215549   -3.5619302   0.50476834   -1.3775239 -0.00012147478 
 4636000   0.77918717   -4.1642558   0.63769931   -2.4551741 -8.535871e-05 
 4637000     1.092795   -3.8328088   0.43624884   -1.8939668 -7.9886647e-05 
 4638000   0.61886948   -4.3513002   0.45810363    -3.042251 -0.00022758108 
 4639000   0.74804691   -3.5393698   0.74119585   -1.7696094 -0.00012625736 
 4640000     1.015567   -4.3579867    1.5621384   -1.3994437 -0.00049726115 
 4641000   0.72133215    -4.164611   0.62838255   -2.5443967 -0.00033058917 
 4642000    1.1057188   -3.6171938   0.18742076   -1.9094096 -0.00018509567 
 4643000   0.77578264    -3.953832   0.47509611   -2.4120347 0.00020697271 
 4644000    1.5157485   -4.3253635    0.2495478   -1.9916616 -6.7760616e-05 
 4645000    1.4507179   -4.1705239   0.69049101   -1.4852958 1.6858871e-05 
 4646000   0.84921093   -3.4900248   0.57103133   -1.7513284 -2.6820455e-05 
 4647000   0.83813442   -4.0920115   0.48708546   -2.4524912 -0.0002354611 
 4648000   0.80302434   -4.0488933   0.42673717   -2.5179977 0.00021121204 
 4649000   0.84885203   -4.3731691   0.69547634   -2.5105212 -0.00016740311 
 4650000    0.9253071   -4.1069999   0.34999145   -2.4847112 -0.00020475018 
 4651000   0.80231825   -4.0492007   0.58907619   -2.3569369 0.00012514753 
 4652000   0.83427586   -3.9164793   0.94661961   -1.8227304 -0.00043251405 
 4653000    1.1831459   -4.1543094   0.77160584   -1.7558779 -1.1409171e-05 
 4654000    1.1924281   -4.3377245    0.4632039    -2.234932 8.8330468e-05 
 4655000    1.0593605   -3.9727268    0.2518389   -2.2642672 0.00040758477 
 4656000   0.84286843   -4.0880764   0.89962296   -2.0295093 -0.00035100907 
 4657000   0.51723946   -4.4787109   0.15321486   -3.6142918 5.0661309e-05 
 4658000    1.3605323    -3.722745   0.39349667   -1.4585164 -8.7093518e-06 
 4659000    1.2510415   -3.7500048   0.34874723   -1.6810755 0.00038676923 
 4660000   0.88824896   -3.5895272   0.40278554   -1.9653994 0.00038896359 
 4661000    1.3277778    -4.239522   0.63106685   -1.7827607 -0.00013522077 
 4662000    1.1446845   -4.1337342   0.77429643   -1.7854967 -0.00037474557 
 4663000    1.0290623   -4.3315796   0.28318843   -2.6334305 0.00019551448 
 4664000   0.72828957   -3.9759673   0.75600112    -2.218568 -0.00023618675 
 4665000    1.4213714   -3.9524828   0.54272292   -1.4553742 8.5628697e-05 
 4666000   0.83925461   -3.7036653   0.90907645   -1.6406138 -0.00034032902 
 4667000   0.53499635   -4.1012301    0.3833035   -2.9823066 -0.00018471426 
 4668000   0.76951658   -3.7623135   0.77911966   -1.9251086 -0.00045006111 
 4669000   0.65702171   -4.3098579   0.54871986   -2.8577332 -1.2574663e-05 
 4670000    1.2974078   -3.5563411   0.37538945   -1.3970159 0.00030908503 
 4671000   0.66479834   -4.1104064   0.43871453   -2.7575941 -0.00017365573 
 4672000   0.69214979   -3.8455731   0.99831707   -1.8955501 -0.00021226722 
 4673000   0.48732807   -4.4009609   0.46414388   -3.2667409 5.3621084e-05 
 4674000   0.92282116   -4.1732227   0.39642005   -2.5079236 0.00034080392 
 4675000   0.63506611    -3.762014     1.304501   -1.5842971 -0.00040521658 
 4676000   0.78034055   -3.8250332   0.84240811   -1.9096568 -0.00036879524 
 4677000    1.2622238   -4.0589781   0.32367267   -1.9997477 0.00042514614 
 4678000   0.79002107   -3.8371789   0.24155432   -2.5093456 0.00056083129 
 4679000   0.78177984   -4.2473426   0.27890494   -2.8934904 -8.303606e-05 
 4680000    1.1588517   -3.6735636   0.43876524   -1.6413773 -0.00019867371 
 4681000    1.3209347   -3.4888036   0.30154923   -1.3709691 0.00045955522 
 4682000   0.47162104   -4.2397915   0.62800815   -2.9633045 -4.1720629e-05 
 4683000    1.1227336   -3.9167621   0.63733303   -1.7356704 -0.00045936501 
 4684000   0.93777243   -4.3001341   0.29566346   -2.7150335 0.00080164214 
 4685000   0.70344619   -3.4343814   0.53188438   -1.9352586 -0.00017379558 
 4686000    1.0608117   -4.0265465   0.39921583   -2.1687146 0.00035153811 
 4687000   0.66435279   -3.9241995   0.92488024   -2.0858341 -0.00040768705 
 4688000   0.88290226   -4.0013256    0.4277483   -2.3595866 0.00010492519 
 4689000     1.102453   -3.2630102   0.31508459   -1.4320527 -0.00010213467 
 4690000    1.1074787   -4.0527205   0.56421559   -1.9657217 0.00012028111 
 4691000    1.2934431   -3.6151195   0.62229763   -1.2143376 3.711046e-05 
 4692000    1.1701551   -3.8553369   0.20243416   -2.0439395 0.00051393487 
 4693000    1.0707727   -3.1501797   0.41758528   -1.2602821 0.00025522865 
 4694000   0.82604683   -3.9536933  0.094020298   -2.7238586 -8.0387984e-05 
 4695000    1.0708281   -4.0073321   0.41679907   -2.1181443 0.00021123725 
 4696000    1.1143331   -3.4636804   0.86866591   -1.0628065 -0.00031680768 
 4697000    1.2051367   -3.4244844   0.70461402   -1.0628074 8.2300824e-05 
 4698000    1.0815827   -3.7178899   0.28223795   -1.9484757 0.00027916988 
 4699000   0.99374432   -4.0047077    0.6722121   -1.9660972 -0.00042207753 
 4700000   0.94744444   -4.0181206   0.38323262   -2.3321519 0.00017187372 
 4701000    1.4704772    -3.310751   0.56842636  -0.72041848 0.00014892603 
 4702000   0.76927565   -3.5728618   0.46550597   -2.0496018 0.00024436567 
 4703000   0.90651706   -3.9853714    1.1099987   -1.6289118 -0.00011470528 
 4704000   0.52086124   -3.7443261   0.59829763   -2.4298443 -5.6005362e-05 
 4705000    1.4419344   -3.5363525   0.40873136   -1.1449613 0.00010698835 
 4706000    1.0813412   -3.7995869   0.40712731   -1.9056154 -0.00028152916 
 4707000   0.59489153   -3.1630697   0.68867018   -1.6564237 -3.0563626e-05 
 4708000      1.25592   -4.0251489   0.59459591    -1.703663 5.5055133e-05 
 4709000   0.98385215    -3.614876   0.26142322   -2.0006561 -7.5163987e-05 
 4710000    1.4009794   -3.3927085   0.25910273   -1.2072591 0.00029470289 
 4711000     1.035432   -4.1729726   0.46754071   -2.2817128 -0.00022331779 
 4712000   0.91005158   -3.7270273   0.59387634   -1.8818301 -8.6985451e-05 
 4713000   0.61676571    -3.877861   0.38054271   -2.6492655 0.00013548492 
 4714000     1.209092   -3.8243966   0.32158895   -1.8403062 3.1603791e-06 
 4715000   0.65583806   -4.2719575    0.4648066   -2.9053736 0.00037829906 
 4716000    1.1706849   -3.9819182   0.66864084   -1.7035856 0.00017074642 
 4717000    1.1767858   -3.8676316   0.23578248   -2.0137686 0.00041495195 
 4718000   0.94442516   -3.3958191   0.54226661   -1.5549679 0.00052095923 
 4719000   0.62126707   -3.9240615   0.90653149   -2.1632878 -0.00028966422 
 4720000   0.91576118   -3.8880046   0.22398832   -2.4048447 6.4815756e-05 
 4721000   0.84462885   -3.6922796   0.44723122   -2.0836837 0.00032590953 
 4722000   0.75232261    -3.972273   0.84951354   -2.0883159 -0.00031582327 
 4723000    1.0454105   -3.7245103   0.53197782    -1.755093 -0.00029045325 
 4724000    1.1080146    -2.942108   0.62541593  -0.79317193 -5.4394104e-05 
 4725000    1.2225205    -4.238314   0.75564829      -1.8017 -0.00032922963 
 4726000   0.69376315   -4.0704925   0.53461077   -2.5819574 4.6659181e-06 
 4727000    1.0617488   -3.7295192   0.65089219   -1.6187225 0.00033539429 
 4728000   0.98364368   -3.4644628   0.25274579    -1.859207 -2.4204664e-05 
 4729000   0.92895488   -3.3192462   0.29146286   -1.7504704 0.0001236273 
 4730000    0.7436916   -3.7976711    0.6192734   -2.1558218 -0.00013048643 
 4731000    1.2411268   -4.2325425   0.45312916    -2.072864 0.00026461015 
 4732000    0.7466265   -3.8566087   0.19772396   -2.6322733 -3.9801607e-05 
 4733000    1.3355105   -4.0389553   0.33647219   -1.8661561 0.00012677815 
 4734000    1.0189918    -4.106202   0.25400305   -2.4510852 0.00012493015 
 4735000   0.67781901   -3.9176135   0.14927229   -2.8363401 0.00073821912 
 4736000   0.71040584   -4.0042314   0.74403431   -2.2833891 -0.00015334415 
 4737000   0.84831931   -3.4215861   0.62377757   -1.6313694 -0.000378696 
 4738000    1.0309691   -4.2153757   0.92920315     -1.86859 -0.00024664041 
 4739000   0.90625168   -3.5669683   0.28638817   -2.0344841 0.00038650539 
 4740000   0.74737654   -3.7231963   0.47295067   -2.2226029 -0.00022474369 
 4741000    1.0671412   -3.4284155   0.99190103   -0.9691953 9.1232148e-05 
 4742000    1.0222006   -3.7333804   0.97161401   -1.3562406 -0.00014904824 
 4743000    1.1291404   -4.3166365   0.96831646    -1.795752 -0.00037175478 
 4744000   0.59144889   -3.7668745   0.47248593   -2.4811464 -0.00012232448 
 4745000   0.91000361   -3.6390533   0.58762167   -1.8001767 -1.6313991e-05 
 4746000    1.1258929   -2.9032739   0.57968151  -0.77548959 0.00022898757 
 4747000   0.86806524   -4.1610655   0.64553366   -2.3219422 -0.00010241087 
 4748000   0.81053797   -3.6442172   0.60853364   -1.9211939 -0.00016267402 
 4749000   0.58652975   -3.3846941   0.22473639   -2.3534793 0.00013424363 
 4750000   0.66216317   -3.9251168   0.38829325   -2.6263492 -0.00015015608 
 4751000    1.1258093   -3.9878004   0.90344363    -1.536369 -0.00014096354 
 4752000   0.90991579    -3.776265   0.40284403   -2.1222868 0.00012432159 
 4753000     1.022893   -3.8113748   0.56110912   -1.8437878 0.00054692846 
 4754000   0.72792489   -3.9994487   0.85050594    -2.148046 -0.00027963052 
 4755000    1.0848821   -4.1099728   0.46997061   -2.1482892 0.00031998603 
 4756000    1.3048725   -3.6734701   0.44079059   -1.4384797 -5.4139583e-07 
 4757000   0.81382919   -3.8015242   0.55969173   -2.1228173 -0.00020782974 
 4758000   0.68084981   -4.0343489   0.42970663   -2.6684738 0.00037539639 
 4759000    1.0479424   -3.7279115   0.54841247   -1.7385782 3.5680004e-05 
 4760000   0.80552022   -4.0305217   0.63204702   -2.2908843 -0.00024592857 
 4761000   0.98156971   -3.0954137   0.71211431   -1.0336411 0.00038676518 
 4762000   0.96952247   -4.0131395    0.5619909   -2.1180552 -6.4512595e-05 
 4763000    1.0840727   -3.6112463   0.57302252   -1.5476238 -0.00021685011 
 4764000    1.2466189   -3.0539238   0.25916762   -1.0806551 4.3536325e-06 
 4765000   0.94387176   -3.4441917   0.49025735   -1.6561107 6.6513361e-05 
 4766000   0.63227678   -3.9476817   0.62671446   -2.4515867 -0.00018219686 
 4767000    1.0522085   -3.8490779   0.55519765   -1.8470935 -2.0005283e-05 
 4768000    1.1909163   -4.3636509   0.31050652   -2.4156344 0.00022220063 
 4769000    1.2309726   -3.5512263   0.66333713   -1.1953019 -0.00037647216 
 4770000      1.53038   -4.1905322    0.2278909   -1.8583688 1.7066001e-05 
 4771000   0.97699562   -4.2204287   0.32914116   -2.5479186 -4.3453604e-05 
 4772000    1.2612224   -4.1363016   0.77973212   -1.6223886 -2.9124262e-05 
 4773000    1.1605539   -4.2769429   0.34545403   -2.3357273 -6.1297191e-05 
 4774000    1.0174807   -4.1184573   0.36639223   -2.3530291 -0.00011413115 
 4775000    1.8395936   -3.4006873   0.51635419  -0.35489198 0.00015808234 
 4776000   0.94225365   -3.9550827   0.12435173   -2.5351322 9.2711316e-05 
 4777000    1.1052187   -3.9175972   0.34301308   -2.0549084 0.00021447018 
 4778000   0.96509342   -4.0285154   0.30122449   -2.4002875 -0.00021033444 
 4779000   0.92089449    -4.009648   0.83348196   -1.9099362 0.00031729867 
 4780000   0.59374619   -3.4880856   0.54314647   -2.1285381 0.00046619728 
 4781000   0.51775099   -3.5876956    0.4320511   -2.4437369 -0.00030859342 
 4782000    0.8808725   -3.7742692   0.29129534   -2.2717742 -5.9604684e-05 
 4783000    1.0900936   -3.8437364   0.19103678   -2.1538209 0.00014292443 
 4784000   0.58018603   -3.8599757   0.87465909   -2.1875608 -0.00013832056 
 4785000    0.8445803   -2.8651191   0.22566311   -1.4781581 0.00015046071 
 4786000    1.3165749    -3.661793   0.59762002   -1.2538825 -0.00027821764 
 4787000    1.0199184   -3.1645441   0.60434112   -1.1578153 -0.00014427032 
 4788000   0.98633785   -3.8921273   0.63802916   -1.8978836 -9.8924975e-05 
 4789000   0.91889424   -4.0518032   0.56447279   -2.2238509 0.00034990079 
 4790000    1.1968497   -3.3958854   0.28077442   -1.4694427 0.00018649387 
 4791000   0.86577908   -4.0923016   0.52371533   -2.3781401 -0.00033669573 
 4792000   0.61624011   -3.7825111    0.5557393   -2.3794416 -0.00022302036 
 4793000   0.85472032   -3.8408761   0.60981679   -2.0558189 -0.00019013662 
 4794000    1.3563596   -3.8676473   0.94759982    -1.055053 -0.00015732272 
 4795000   0.98548818   -4.1862879   0.32038763    -2.510854 0.00010347437 
 4796000    1.1578676   -3.7739205   0.63410677   -1.5477458 -0.00020132531 
 4797000     0.947078    -3.988068   0.66124254   -2.0245932 -0.00026916488 
 4798000    1.3541109   -3.8619803   0.61782434   -1.3822534 3.8715434e-05 
 4799000    2.0234367   -3.2177755   0.28473724  -0.15081286 0.00067896823 
 4800000   0.81883504   -3.9983265   0.96905997   -1.9033684 -0.00026639845 
 4801000   0.99815954   -4.0184753   0.44837579   -2.1976301 -0.00037898699 
 4802000   0.75188747   -3.6268429   0.49246528   -2.1005323 -0.00014535651 
 4803000   0.74485587    -3.665215   0.35353407   -2.2875041 4.4089265e-05 
 4804000   0.91562217   -3.7876366    1.5092109   -1.0194453 6.6282086e-05 
 4805000   0.96741099   -3.3884326   0.33959928   -1.7186432 -6.2677702e-05 
 4806000   0.71021237    -4.077403   0.60559548   -2.4952655 -0.0001602548 
 4807000   0.55616896   -4.2641807   0.83189028   -2.6675581 0.00010823576 
 4808000    0.9232962   -3.5344932   0.38488558   -1.8800753 0.00010522101 
 4809000   0.57648095   -4.1669345   0.46659852   -2.9076747 9.1399009e-05 
 4810000    1.1659444   -4.0544473   0.36727944   -2.0839943 -0.00011268429 
 4811000    1.2009541   -4.0949848    0.4495901   -1.9940828 -2.5986376e-05 
 4812000    1.1492385   -3.6588167    1.1718631   -0.9067507 -0.00054145413 
 4813000   0.94049617   -3.5218585   0.55175876   -1.6769175 -1.9997061e-06 
 4814000   0.64702599    -3.456632   0.24070794   -2.3262633 0.00035319374 
 4815000   0.93525918   -4.2619151   0.56142531   -2.4145084 -0.00010809656 
 4816000   0.96748186   -3.9109258   0.68472144   -1.8959168 7.6033049e-06 
 4817000   0.69771676   -4.5219345   0.70313178   -2.8594422 -5.2300766e-05 
 4818000    0.7693106   -3.5447989   0.39250526   -2.0944915 0.00019507061 
 4819000   0.91473855   -3.5637497   0.20335893   -2.1026253 0.00012032061 
 4820000     1.061239   -4.2138243   0.70307692   -2.0515437 -4.7226978e-05 
 4821000   0.78712569   -4.4964932    0.2084427   -3.2057527 -0.00014054403 
 4822000    1.1171794   -3.7463543   0.69880725   -1.5114254 -0.00019037669 
 4823000   0.60782314    -4.305581   0.50043181   -2.9693924 2.2617145e-05 
 4824000   0.77534335   -3.2576925   0.59108402   -1.6005114 5.853316e-05 
 4825000   0.69834758   -4.2719664   0.70809509   -2.6036434 3.0043712e-05 
 4826000    1.1984807   -3.8905994   0.31418803   -1.9285004 -6.9258077e-05 
 4827000   0.93455342   -4.0382514   0.54931401   -2.2039265 -0.00015275383 
 4828000   0.65859986   -4.0891585   0.18688791   -2.9966958 -0.00030570318 
 4829000   0.99390876   -4.3064676   0.32998335   -2.6098597 -0.000176479 
 4830000    1.2445728   -4.0598152     0.292781   -2.0557466 6.1571263e-05 
 4831000     0.736905   -4.3027926   0.35314141   -2.9364068 0.00019504611 
 4832000    1.2220212   -3.9563765   0.44258908   -1.8335083 0.00038822395 
 4833000    1.0749098   -4.0801029   0.50214814   -2.0999537 -4.8674955e-05 
 4834000    1.2051942   -3.7329561    0.4479805   -1.6278335 -0.00021637027 
 4835000    0.7288302   -4.3554521   0.42849788   -2.9248127 -8.863977e-05 
 4836000   0.90767161   -3.3093751   0.51314954   -1.5481771 -1.2675256e-05 
 4837000     1.002039   -4.1622213   0.20952229   -2.5748954 0.00031555964 
 4838000    1.0668626   -4.2005284   0.38795181   -2.3456405 0.0001497605 
 4839000      1.21922   -4.0562063   0.35225543   -2.0275233 -0.00029881449 
 4840000    0.8040103   -3.6034678   0.21834674   -2.2796069 -8.8904829e-05 
 4841000   0.94119154   -4.0897531    0.2860302   -2.5095846 -2.0570649e-05 
 4842000    1.2069522   -3.6851776   0.62235833     -1.40326 -3.5065299e-05 
 4843000   0.69315721   -3.7826961   0.42614503   -2.4034599 0.00024420711 
 4844000   0.79780792   -4.2507401   0.33700151   -2.8167527 -0.00032137848 
 4845000   0.94526658    -3.414991   0.22295687   -1.8922926 0.00026953281 
 4846000   0.90402377   -3.6166941   0.54154199   -1.8321194 0.00045193564 
 4847000    1.0325948   -3.6887161   0.24904786   -2.0198504 -0.00025357256 
 4848000   0.83236489   -4.4344272    1.1651805   -2.1247449 -1.122965e-08 
 4849000   0.84700587   -3.6270728    0.4211651   -2.0412747 4.484603e-05 
 4850000   0.87855567   -4.4656149   0.65695727   -2.6006436 0.00016667602 
 4851000    1.1772514    -4.190636   0.48435533   -2.0875601 2.3454315e-05 
 4852000     1.006953    -4.142921   0.22495956   -2.5334011 0.00017311588 
 4853000    1.5113525   -4.2246405   0.44685191   -1.6996789 0.00039317805 
 4854000   0.85088099   -4.0078425   0.23295012    -2.604931 -0.00013471525 
 4855000    0.7753712   -4.0012329    0.6789245    -2.256173 0.00013538934 
 4856000    1.4676509   -3.8988088   0.43787179    -1.442917 0.00035215019 
 4857000    1.0486199   -4.0362169    0.1629851   -2.4313794 -9.7704793e-06 
 4858000    1.2117293   -3.4915023   0.58542092   -1.2399536 -0.00037194807 
 4859000   0.60078667   -4.3684402   0.37657332   -3.1657852 -0.00013067134 
 4860000   0.81290103   -3.2782867   0.45500239   -1.7055454 1.4050197e-05 
 4861000    1.0193534    -4.398229   0.18288767   -2.8137304 0.00016243421 
 4862000    1.0040434   -3.9575288   0.77317435   -1.8037947 -0.00036462092 
 4863000   0.63865768   -3.6215394    0.4624495   -2.2809356 6.6143615e-05 
 4864000   0.55767721   -4.2853902    0.3822888   -3.1362952 2.365091e-05 
 4865000   0.93999458   -4.0492444   0.94061189     -1.81614 0.00015460259 
 4866000   0.74258691   -3.9860748   0.28041806   -2.6845998 0.00027308069 
 4867000    1.1947417   -3.9479423   0.45502121   -1.8501513  0.000540593 
 4868000   0.98809685   -4.0837721   0.54956799    -2.175571 -0.00032958327 
 4869000    1.1751809   -4.3380704    0.7145017    -2.007695 -0.00011752232 
 4870000    0.6607237   -3.8906981   0.32684133   -2.6553617 0.00015873964 
 4871000     0.997008   -3.9517626   0.20173975   -2.3791368 -2.7311825e-05 
 4872000     1.574907   -3.6808269   0.50229617   -1.0130336 -0.00019242982 
 4873000   0.94339235   -3.4461695   0.43410934   -1.7148957 0.00054168883 
 4874000     1.176552   -4.1848979   0.25214389   -2.3149951 0.00026772923 
 4875000    1.2137281   -4.3189159   0.31227078   -2.3377689 -0.000207774 
 4876000    1.0450279   -4.1008492   0.51525854   -2.1486773 -0.00016394919 
 4877000   0.92999215   -3.9051067   0.29785617   -2.3285113 -0.00015861336 
 4878000    1.4852817    -3.847277   0.61523294   -1.1897817 0.00026614837 
 4879000    1.1663971   -3.8813365   0.31811645    -1.959424 -0.00016886211 
 4880000   0.75850695   -4.2317015   0.18853346    -3.000221 -8.0933871e-05 
 4881000   0.99080393   -3.4080448   0.50932552   -1.5363639 4.5170573e-05 
 4882000   0.81474817   -3.9243933   0.50340415   -2.3007104 -0.00015448845 
 4883000   0.88380648   -4.1748934   0.28830736   -2.6713521 0.00022402699 
 4884000   0.87632868   -3.7241204   0.49301538   -2.0261531 -4.9185463e-05 
 4885000    0.9723993   -4.0912911   0.54318978   -2.2110523 -0.00025245212 
 4886000   0.74301158   -4.2728634   0.35625151    -2.894971 0.00025604487 
 4887000    1.1120365   -3.5014947   0.38390202   -1.5885425 0.00013119446 
 4888000   0.92462448   -4.2418037   0.67994137   -2.2905037 1.4182438e-05 
 4889000   0.58433455   -4.2518064   0.29392443   -3.1544219 2.9925039e-05 
 4890000    1.1368001   -4.4533192   0.47681476   -2.4134044 5.7480172e-05 
 4891000    1.1299769   -4.1974389   0.86041175   -1.7833089 0.00030095788 
 4892000    1.4144973   -4.2312124    0.5372264   -1.7490523 -0.00011622731 
 4893000   0.90131047   -4.0588197   0.24726934   -2.5722485 -0.00014993595 
 4894000    1.2674596    -4.177165   0.49515941   -1.9392487 -0.00023386064 
 4895000    0.9635641   -4.2240927   0.13382309    -2.765369 1.7657279e-05 
 4896000    1.1253168   -3.9628107   0.49385852   -1.9216416 -0.00029241839 
 4897000    1.4191604   -3.6166327   0.40771145   -1.2575757 -3.241824e-05 
 4898000   0.83535348   -4.0946125    0.5597526   -2.3862489 1.6429666e-05 
 4899000   0.79135363   -3.9525637   0.39777672   -2.4666758 0.00018642564 
 4900000    1.0127675   -3.8141581   0.43824917   -1.9833536 0.00010734037 
 4901000   0.81149696    -4.155395    0.5135575   -2.5260292 -7.068671e-05 
 4902000   0.88723837   -4.1277845    0.4593096   -2.4485222 -0.00034474866 
 4903000   0.91096601   -4.3583077   0.34020158   -2.7655278 -6.044257e-05 
 4904000    1.3767408   -4.3325284   0.46054139   -1.9789684 -3.072807e-05 
 4905000    1.0959821   -3.8579408   0.56344075   -1.7875247 0.00019403275 
 4906000   0.93642419   -4.0281788   0.66726534   -2.0733302 -0.000384079 
 4907000   0.99197457   -4.0735333   0.54773731   -2.1618309 -0.00029165965 
 4908000   0.97972998   -4.0487059   0.41751931   -2.2840578 -0.00041640744 
 4909000   0.92751763   -4.3962525   0.69260942   -2.4283063 5.4284732e-05 
 4910000   0.74471208   -4.3598185   0.30240688   -3.0334325 -0.00011358855 
 4911000   0.76333812   -4.0348233   0.63369766   -2.3515358 -4.3982645e-05 
 4912000    1.1107661   -3.8090047    0.2528496   -2.0288516 -0.00031334434 
 4913000   0.67242345   -4.4086811   0.48833505   -2.9957638 2.5871542e-05 
 4914000    1.2042338    -4.232766   0.69150841   -1.8854361 -0.00018329046 
 4915000   0.82381882   -4.3992566   0.64770454   -2.6188012 -3.6258732e-05 
 4916000    0.9057765   -4.0308754   0.25574787   -2.5296848 -0.00010652851 
 4917000    1.1410714   -3.5948443   0.31406605    -1.711805 0.00013401722 
 4918000    1.1983956   -3.5131181   0.60055128   -1.2647729 -0.00023123157 
 4919000    1.0488903   -4.3196187   0.27679388   -2.6006006 -0.00016487217 
 4920000   0.90291121   -3.9587785    0.5759331   -2.1413425 -0.00030885853 
 4921000   0.54692822   -3.9730259   0.49878866    -2.722211 -5.8823351e-05 
 4922000   0.82760722   -3.4624608   0.48098408   -1.8435168 0.00026673506 
 4923000   0.89106533   -3.8342588   0.23450217   -2.3745418 6.4101771e-05 
 4924000    1.0266325   -4.1831094   0.70984333   -2.0616464 1.0249616e-05 
 4925000   0.63758577   -4.2200701   0.27695551   -3.0664341 -0.00011759489 
 4926000   0.55722897   -3.7284439   0.43379859   -2.5284555 -6.1149945e-05 
 4927000    1.1199686   -4.4645499    0.4228781    -2.501715 -0.00035613302 
 4928000   0.87278963   -4.0965339   0.24221305   -2.6542351  0.000269197 
 4929000   0.95405282   -4.3141278   0.55443927   -2.4478659 -7.800716e-05 
 4930000   0.89930739   -4.0529146   0.67595022   -2.1404167 -0.00015255593 
 4931000   0.98090526   -3.9834607    1.1605096   -1.4742064 -0.00036523835 
 4932000    1.1613968   -4.0771904    0.4387823   -2.0414874 0.00010034596 
 4933000    1.1020132   -4.0789431   0.23288962   -2.3307854 0.00040299567 
 4934000   0.47896083    -3.992021   0.44175212   -2.8916977 -0.00038494635 
 4935000   0.87891057   -3.5914576   0.69170352    -1.691252 -0.00028830424 
 4936000   0.88164885   -4.0587424   0.33032799   -2.5161472 7.8946742e-05 
 4937000    1.2184109   -3.9869305   0.39595124   -1.9156643 0.00023338497 
 4938000     1.104608   -3.9377464   0.47904512   -1.9398652 -0.0002752913 
 4939000   0.43415789   -4.2415491   0.32113098    -3.323451 -0.00041659992 
 4940000   0.94222276    -3.692943   0.22046746   -2.1769192 0.00037881646 
 4941000   0.94872512   -4.0087251   0.22750839   -2.4767197 0.00044752492 
 4942000   0.82765918   -3.7890553   0.30491668   -2.3461072 -3.0678851e-05 
 4943000   0.91282245   -4.1668433   0.28818017   -2.6235323 9.1347245e-05 
 4944000   0.72766243   -3.2070078   0.43260367   -1.7738683 0.00029651037 
 4945000   0.91130674    -3.868143   0.54649756   -2.0685986 1.2770698e-05 
 4946000   0.90556246    -4.044841   0.33492857   -2.4647641 -4.7052519e-05 
 4947000   0.65485101    -4.009509   0.36979625   -2.7392926 -8.4126859e-05 
 4948000    1.0289093   -4.4513515    0.4524959   -2.5841053 -4.8670311e-05 
 4949000   0.82754182   -4.0367667    0.4536788   -2.4452179 -2.7950291e-05 
 4950000   0.83229943   -4.1758442   0.24314058   -2.7882919 -0.00026809989 
 4951000   0.60103978   -3.7845527   0.28055174   -2.6775713 -0.00017377996 
 4952000   0.95163854   -3.8608129   0.83835316   -1.7139568 -0.00026026134 
 4953000    1.1654347   -3.7986925   0.41557353   -1.7806462 0.00050774814 
 4954000    1.1904955   -4.1768863   0.64452388   -1.8954311 9.4693168e-05 
 4955000   0.84351615   -4.2711949    0.3485878   -2.7627724 0.00019582597 
 4956000    1.1355976   -3.9088529   0.37588294   -1.9715232 2.3672095e-05 
 4957000    1.2964174   -4.3146547   0.71526751   -1.8168133 -1.6493104e-05 
 4958000    1.0260597   -4.0283349   0.38768231   -2.2298206 0.00019728342 
 4959000   0.98718079   -4.3493181   0.62599842   -2.3659461 3.1418128e-05 
 4960000   0.87362085   -4.1301946   0.63130506   -2.2976608 -0.00021118624 
 4961000    1.5764429   -3.9327373    0.7206066   -1.0445217 0.00029660177 
 4962000   0.95157837   -3.8392737   0.23038164   -2.3004718 0.00024047612 
 4963000   0.55877853   -3.8139716   0.30242237   -2.7432287 0.00020398525 
 4964000    1.5815246   -4.0017822   0.58898485    -1.238201 0.00013922536 
 4965000   0.89581458   -3.9598609   0.62712218   -2.1009937 -0.00044761281 
 4966000   0.89810219   -4.1877526   0.13353693   -2.8193251 4.7730917e-05 
 4967000   0.88111924   -3.9873089    1.0507572   -1.7250127 -0.00039399828 
 4968000    1.0833062   -3.8679204   0.21121661   -2.1671577 0.00018353266 
 4969000   0.95315192   -3.9113278   0.28109803   -2.3196459 -2.3744252e-05 
 4970000    1.0744426   -3.6629611   0.18848196   -1.9971206 -0.00030883446 
 4971000   0.92127199   -4.3124994   0.94497225   -2.1007782 -0.00049678931 
 4972000    0.9075051   -4.1303115   0.56415034   -2.3183417 0.0003667453 
 4973000    1.0594019   -4.4748513    1.3160278   -1.7021458 -0.00026728941 
 4974000     1.052098   -3.8211114   0.75541116   -1.6190655 -0.00022956286 
 4975000   0.65309436    -4.111212   0.84735061   -2.3658567 -0.00018255385 
 4976000   0.90877134   -4.3005704   0.58879931   -2.4622105 0.00010842498 
 4977000    1.1161514   -3.9960141   0.64565156   -1.8156544 -0.00019423799 
 4978000   0.92159266   -4.3916223   0.68328176   -2.4411507 -0.00028668674 
 4979000    0.9788018   -3.7763875   0.84142543   -1.5891096 -0.00019065963 
 4980000   0.86777366   -3.9547666   0.26959887   -2.4919789 -3.631396e-05 
 4981000   0.93126254   -3.7718965   0.27678566   -2.2146248 -0.00021403725 
 4982000    1.0502722   -3.8028501   0.29427807   -2.0644478 0.00014893441 
 4983000    1.0015279     -3.65293     0.515924   -1.7599051 0.00012292345 
 4984000     1.101772   -3.8800868   0.29527533    -2.069875 1.8786246e-05 
 4985000   0.61175243   -3.8457606   0.71959871   -2.2850023 4.7995087e-05 
 4986000    1.0772004   -3.6529126   0.41789646   -1.7538656 0.00027616201 
 4987000    1.0753115   -3.6289836   0.47613437   -1.6742959 -0.00030531108 
 4988000   0.98989584   -3.3157806    0.6250844   -1.3295894 -0.00049686821 
 4989000    1.2516082    -4.195492   0.58174817   -1.8927826 0.0003226659 
 4990000    1.1501158   -4.3111798   0.36472999   -2.3650406 0.00033030572 
 4991000   0.83355557    -3.758112   0.25897781   -2.3529953 0.00057273308 
 4992000   0.98170422   -3.7641639   0.81703603   -1.5972846 0.00019783355 
 4993000     1.313288   -3.8828578   0.40818879    -1.668898 0.00027442671 
 4994000   0.67731694   -4.0726993   0.32028082   -2.8211077 0.00027181445 
 4995000   0.75798523   -4.0172471   0.36834864   -2.6066688 -0.00014338246 
 4996000    1.8751866   -3.9990053   0.49245052  -0.92817312 3.3910391e-05 
 4997000   0.89796818   -4.1275968   0.33842781   -2.5544627 -0.00016404954 
 4998000    1.3161949   -3.5838256   0.30544074   -1.4686169 -6.7288751e-05 
 4999000    1.0617532   -3.9762054   0.28350492   -2.2327898 3.547742e-05 
 5000000    1.3326973   -4.1789549   0.28467967   -2.0618163 7.7109587e-05 
 5001000   0.53893102   -4.3109526   0.78731141   -2.7826111 -0.000379229 
 5002000      1.10441   -3.6590775   0.57877104   -1.5617428 -5.5644863e-05 
 5003000    1.2303185   -4.0971983   0.51479288   -1.8907175 0.00027852648 
 5004000    1.0796496    -4.404584   0.55081645   -2.3692493 -0.00024533771 
 5005000    1.3026795   -3.8356281   0.61315347   -1.4312904 0.0002853925 
 5006000   0.81782417    -3.767943   0.33842087   -2.3050139 -0.00024024237 
 5007000    1.3295096   -3.9249754   0.87755176    -1.219348 -9.809973e-05 
 5008000    1.0193886   -3.9612593   0.37081212   -2.1887878 0.00024775762 
 5009000     1.196257   -3.3639856   0.53293545   -1.1861968 0.00015779045 
 5010000   0.55134548   -3.4970112   0.29694407   -2.4419671 0.00026445953 
 5011000   0.78784057   -4.2595976   0.49866327   -2.6776535 0.00012161837 
 5012000   0.93360307    -3.875807   0.46537775    -2.126725 -0.00013449088 
 5013000   0.86219069   -3.4896502   0.42925806   -1.8748799 -0.00048588825 
 5014000    1.3079763    -4.202126   0.36271763   -2.0409409 0.00011971203 
 5015000   0.72248691   -4.2364501   0.19492799   -3.0481026 -6.8901068e-08 
 5016000    1.1015104   -3.5829747   0.53919164   -1.5292062 8.5288791e-05 
 5017000    1.4194182   -3.7412775   0.65435741   -1.1352201 1.0233924e-05 
 5018000    1.1933511   -3.6041733   0.59957963    -1.363736 -0.00029973807 
 5019000   0.99416158   -4.2805634   0.29159195   -2.6219992 0.00014748181 
 5020000    1.0952525   -3.6015515   0.36110608   -1.7344733 1.9466479e-05 
 5021000   0.68714075   -2.6177191    0.5339807   -1.1389199 -0.00011367601 
 5022000    1.1802138   -3.7133527   0.39658647   -1.6939723 0.0002402272 
 5023000    1.2489144   -4.2835959   0.43326549   -2.1330731 -5.5269272e-05 
 5024000   0.95434905   -2.9797199   0.37697049   -1.2905195 -3.4507989e-05 
 5025000   0.81716949   -3.4380513   0.20226598   -2.1121772 6.4339685e-05 
 5026000     1.390899   -3.3696573   0.39810762   -1.0590635 -2.2453212e-05 
 5027000    1.3064037   -4.1830258   0.65137928   -1.7353414 -6.4951121e-05 
 5028000    1.3122692   -3.6054299   0.41346605   -1.3875937 0.00013066612 
 5029000   0.96453632   -3.9886183   0.35329464   -2.3090862 0.0001766292 
 5030000   0.98163329     -3.76856   0.34729604   -2.0715182 0.00050635363 
 5031000    1.2249947   -3.9752059   0.58501252   -1.7058256 -0.00020693605 
 5032000    1.0644586   -4.1284825   0.47257122   -2.1922808 -0.0001927568 
 5033000    0.7877025   -3.3801994   0.46475132   -1.8323571 -7.1420006e-05 
 5034000     1.262226   -3.2027331   0.28296224     -1.18421 0.00011355519 
 5035000    1.0094938   -3.8973812    0.4278595   -2.0814678 -0.00022330811 
 5036000   0.88879903   -4.0756146   0.43483391    -2.418682 -0.00031835819 
 5037000    1.2584247   -3.7722956   0.81702825   -1.2249333  0.000160643 
 5038000    0.8414241   -3.5973839   0.77113565   -1.6692902 -0.00038854515 
 5039000   0.93902097    -4.060933   0.73998391   -2.0297953 -0.00032776972 
 5040000    1.0586085   -3.3242247   0.72136646   -1.1472715 -0.00046088041 
 5041000   0.52777493   -4.0809345    0.6485622   -2.7066818 -0.00015002852 
 5042000   0.94448683    -4.022203   0.65397761    -2.069556 -0.0002353432 
 5043000    1.0560836   -4.0219559   0.21690538   -2.3529355 0.00043759588 
 5044000    1.3320899   -4.2840594   0.66521435   -1.7872215 -0.0003267546 
 5045000    1.0507715   -4.1502687    0.3462903   -2.3591676 -0.00012842144 
 5046000    1.4755744   -3.5765724   0.45512942   -1.0925282 -0.00028052996 
 5047000   0.79118861   -3.7935096   0.58055797   -2.1250673 -0.00051503685 
 5048000    1.1666403   -4.4386756    1.2111433    -1.623402 -0.00011045135 
 5049000   0.92276887    -4.133436  0.094804752   -2.7698241 0.00025307655 
 5050000   0.90489685   -3.6554748   0.62534017   -1.7859015 -0.00015940995 
 5051000    1.4159449   -3.8090513   0.31045313    -1.551674 0.00055750897 
 5052000   0.93508848   -3.9011589   0.42918898   -2.1862233 3.3648711e-06 
 5053000      1.12673   -4.0168998   0.38500447   -2.0826416 -8.4832878e-05 
 5054000    1.1057612   -3.3791027    1.0071254  -0.85155569 0.00050114677 
 5055000   0.62955791   -3.7528786     0.780322   -2.1069144 -0.0002101353 
 5056000      1.09367   -3.6569563   0.52361667   -1.6295434 0.0002917341 
 5057000   0.95534316   -4.2353414   0.51465903   -2.4070855 -0.00023883369 
 5058000   0.94631546   -3.3724073   0.60903731   -1.4621862 -0.00023683031 
 5059000   0.80458206   -3.6948334   0.50350502    -2.085028 0.00013606509 
 5060000   0.97017172    -3.199757   0.58257584    -1.283195 -0.00039077244 
 5061000   0.51212672   -3.9798531   0.60296141   -2.6727175 0.00021606902 
 5062000    1.1812395   -3.4067031   0.29921517   -1.4832836 0.00012027078 
 5063000    0.8158898   -3.6963465   0.24035054   -2.3341475 -0.00033121572 
 5064000   0.58638884   -4.1721884   0.61047131   -2.7554325 -9.3591868e-05 
 5065000    1.0493619   -4.1945931   0.35508866   -2.3966319 -1.8870912e-06 
 5066000   0.77721942   -4.0756505    0.5847133   -2.4222605 -0.00037483172 
 5067000   0.80413001    -4.246084   0.93243512   -2.2079701 -0.00032871609 
 5068000    1.1941684   -4.2864521   0.27775637   -2.3667142 0.00021768323 
 5069000   0.97744798   -3.5767314   0.47547455   -1.7572659 0.00029036817 
 5070000   0.81669015   -3.8761592   0.44381928   -2.3093909 7.2725708e-05 
 5071000    1.2811974   -3.8383792   0.56703623   -1.5096966 0.00037520874 
 5072000   0.65355456    -4.175849   0.56823958   -2.7089719 9.3706985e-05 
 5073000   0.89854233   -3.8265717   0.38328329   -2.2077927 0.00053013481 
 5074000    1.2715148   -3.3570802   0.48905216   -1.1196951 0.00031028172 
 5075000     1.103674   -4.0004543   0.60572179   -1.8771807 -0.00034339751 
 5076000    1.0736554   -4.3741203   0.48294445   -2.4148996 -0.00022446003 
 5077000   0.62138045   -3.4075708   0.54379202   -2.0093806 6.6117948e-05 
 5078000    1.1802946   -3.7281405   0.22944994   -1.8757855 0.00035907729 
 5079000   0.87279781   -3.3103214   0.40572178   -1.7045026 -0.00032790196 
 5080000   0.45423544   -3.8549714   0.45141944   -2.7789782 7.6328098e-05 
 5081000    1.1475834   -3.9736693   0.73381185   -1.6619303 -0.00018698375 
 5082000   0.97739006   -3.9922134   0.71843492   -1.9298671 -0.00025177015 
 5083000    1.3082694   -3.3740217   0.78115838  -0.79399282 0.00015057132 
 5084000    1.2272731   -3.9631039   0.40130021   -1.8743031 0.00036002424 
 5085000   0.89609113   -3.8125198   0.27647781   -2.3039167 -4.3132937e-05 
 5086000     1.102579   -3.5049698    0.5218864   -1.4670374 0.00017093819 
 5087000   0.72534213   -3.8874327   0.64007419    -2.250013 -0.00047309638 
 5088000   0.94273343   -3.9832167    0.7509158   -1.9360425  -5.1046e-06 
 5089000   0.63150751   -4.3680976   0.35319344   -3.1465814 -0.00022375416 
 5090000    1.2246444   -3.5629291    0.8393426   -1.0397004 -0.00031373717 
 5091000   0.98986532   -4.3010451   0.50243187   -2.4375484 0.00010373878 
 5092000    1.1375064   -2.9708542   0.19250567   -1.2142773 0.0001845333 
 5093000   0.85596606   -3.3834387   0.41375217   -1.7927332 0.00045260808 
 5094000   0.73194792   -4.1010302   0.59070613   -2.5038957 -0.00028709362 
 5095000    1.0176912   -3.8248858   0.60216934   -1.8233911 -0.0001873438 
 5096000    1.0008223   -3.9894739    0.2638486   -2.3494946 0.00043587814 
 5097000   0.78218047   -4.1763185   0.84298084   -2.2578395 0.00013189622 
 5098000   0.71720555   -3.5210789   0.80888438   -1.7260369 6.7843552e-05 
 5099000     1.026166   -3.4628421   0.54512691   -1.5067369 -3.5479634e-05 
 5100000    1.1893918   -4.0346638   0.50588122   -1.8933689 0.00021938096 
 5101000    1.1112323   -4.1457488   0.46637715   -2.1514273 4.8142665e-05 
 5102000    1.0760769   -3.3596568   0.68442703   -1.1956241 0.00018682066 
 5103000   0.89551108   -4.1704813    1.0956516    -1.843502 -0.00059512418 
 5104000    1.0289477   -3.7365722   0.42738617    -1.894383 -8.086782e-05 
 5105000    1.0495546    -3.772881   0.52314929   -1.8065941 -0.00012094338 
 5106000   0.84965386   -4.0134172   0.49959148   -2.3455516 4.1990676e-05 
 5107000    1.4399461   -4.1926511   0.33781846   -1.8749068 0.00011480156 
 5108000    1.0136381   -3.8338452   0.68894308   -1.7511498 0.00014190463 
 5109000    1.2508345    -3.715758   0.30832879   -1.6875318 9.6967638e-05 
 5110000   0.97323125     -4.10338   0.26621583   -2.4989712 0.00019343103 
 5111000     1.165451   -3.5947025   0.37391057   -1.6182968 0.00016777113 
 5112000   0.81621035   -3.5584874   0.21825288   -2.2179453 1.6370996e-05 
 5113000   0.72990363   -3.8391349   0.16129234   -2.6742251 -0.00015265136 
 5114000   0.90059755   -3.5232038    0.5186666   -1.7662155 0.00042740681 
 5115000   0.87954444    -4.190774   0.37279399   -2.6086064 -8.5561667e-05 
 5116000      1.10598    -3.878332   0.52236593   -1.8352436 -0.00018484451 
 5117000   0.67241338   -4.0579114   0.48374294      -2.6496 -0.00026253651 
 5118000   0.95737636    -3.701669   0.43072739   -1.9545491 -0.00019526774 
 5119000    1.2516572   -3.0379625    0.3310175  -0.98591637 -9.2510281e-05 
 5120000    1.0470984   -3.9492593   0.32561409   -2.1838849 -3.9845175e-05 
 5121000   0.85196032   -3.2260999   0.43182109   -1.6228334 9.8849144e-05 
 5122000    1.0100579   -4.1634072    0.4591796   -2.3153979 -0.00021860067 
 5123000    0.8089581   -3.6651997   0.25310181   -2.2997805 -6.1500277e-05 
 5124000    1.0033514    -4.194524  0.070888489   -2.7440273 0.00035917266 
 5125000    1.0665467   -3.3063832   0.31743738   -1.5224441 1.4403894e-05 
 5126000    1.1866395   -3.9752516   0.92741926    -1.416203 9.9985625e-05 
 5127000   0.78993969   -4.1330613   0.59179321    -2.455101 -3.5443561e-05 
 5128000     1.536381   -3.4441116    0.4430618  -0.88852596 -0.00020803048 
 5129000   0.93790085   -3.3977652   0.45851904   -1.6496325 1.5694763e-05 
 5130000   0.90055443   -3.8072706   0.26867028    -2.300338 -2.0382674e-05 
 5131000   0.83459142   -3.5507262   0.60252376   -1.8006392 8.2746544e-05 
 5132000    1.3095758   -3.7492413   0.51273932   -1.4358352 -6.7895895e-05 
 5133000    1.1200175   -4.1151808   0.32486829   -2.2502885 -0.00011983961 
 5134000    0.9313443   -3.6670692   0.43758921   -1.9488816 -0.00028850914 
 5135000   0.76345705   -4.2501178    0.3236066   -2.8767578 0.00020035416 
 5136000   0.99303034   -3.9045064   0.52782593   -2.0112637 7.2902597e-06 
 5137000     1.026559   -3.7538357    0.7566891    -1.585628 -0.00044800784 
 5138000    1.1818586   -3.9210791   0.76120116   -1.5348223 -0.0002406695 
 5139000   0.82494645   -4.2649944   0.86873008   -2.2619629 -0.00027260952 
 5140000   0.93867373   -3.4148078   0.26334749   -1.8607839 -0.00027150431 
 5141000   0.75821912   -4.2484259   0.20835838   -2.9975162 0.00028278945 
 5142000   0.66343995    -3.781149   0.84830568   -2.0206134 4.1595394e-05 
 5143000   0.74415195   -3.6878794    0.3749127   -2.2897578 -4.6217485e-05 
 5144000   0.84246558   -4.3745139   0.46694453   -2.7491792 -5.8598723e-05 
 5145000     1.302713   -3.8931075   0.25463723   -1.8472399  0.000367626 
 5146000   0.89830773   -4.1010176   0.21685846   -2.6489861 -3.6931612e-05 
 5147000     1.287175   -3.8974941   0.57444764   -1.5531808 -0.00020089141 
 5148000    1.3633695    -3.917139   0.59362041   -1.4488856 0.00043497389 
 5149000    1.3213432   -4.5056002    0.2890247   -2.3997286 -7.4917752e-05 
 5150000   0.96299694   -4.5136288    0.3068322   -2.8826758 -0.00019524005 
 5151000   0.64262208   -3.8199909   0.87661117   -2.0597743 -0.00042384489 
 5152000   0.96905058    -3.994043    0.2759196   -2.3856789 -0.0002131464 
 5153000    1.3207729   -3.9085847   0.63600148   -1.4565204 0.00046131629 
 5154000   0.98948841   -3.7001645   0.31168369   -2.0279343 0.00038969717 
 5155000    1.1105583   -4.1726602   0.26446676   -2.3811758 -3.9482555e-05 
 5156000     1.007235    -3.573935   0.64639401   -1.5425929 -0.0002127528 
 5157000   0.88312436   -3.9663877   0.36732923   -2.3847625 -0.00021445101 
 5158000    1.2151143    -4.432118    1.1981254   -1.5632105 -0.00050768018 
 5159000    1.0974641   -3.6751023    0.5984711    -1.567618 -0.00015279808 
 5160000    1.0748932   -3.7740524   0.56830145   -1.7277728 -8.2540798e-05 
 5161000   0.76210963   -4.3392486   0.44813874   -2.8432092 0.00011069346 
 5162000   0.88791474   -3.6693768   0.49074625   -1.9577478 -1.754568e-05 
 5163000    1.0761024   -4.0541174   0.46467055    -2.109806 2.0460522e-05 
 5164000   0.69127288   -3.7297016   0.37851414   -2.4006872 7.3062122e-05 
 5165000    1.4342418   -4.0291919   0.42923673   -1.6278727 4.8083225e-05 
 5166000   0.86193262   -4.1548474   0.35759781   -2.6120923 5.5363906e-06 
 5167000    1.1216461   -3.6662649   0.30617741   -1.8178241 0.00027510608 
 5168000     1.341266   -4.0669215   0.71615707   -1.5065237 -7.5771272e-05 
 5169000   0.77138081   -3.5295721    0.3594591   -2.1094644 0.00025601466 
 5170000    1.0349998   -4.2477027   0.32269758   -2.5018804 0.00014891269 
 5171000   0.86923136   -4.2337413   0.78102093   -2.2575272 -0.00020926642 
 5172000   0.61369526   -3.5506636   0.61790267   -2.0889299 -0.00040643081 
 5173000    1.1349847   -3.7972315   0.52245379   -1.7141737 -2.0868062e-05 
 5174000   0.98640674   -4.2576007   0.24812574   -2.6531657 -0.00021100869 
 5175000   0.82763621   -3.4367688   0.61868429   -1.6800847 1.3476526e-05 
 5176000   0.53176056   -3.9117877   0.54386529   -2.6367516 -0.00044413335 
 5177000   0.78153644    -4.370049   0.61997413   -2.6754623 -0.00038942946 
 5178000   0.94409297   -3.9920489   0.71094491   -1.9829762 -8.4313927e-05 
 5179000    0.6325832   -3.6818469   0.34574386   -2.4663012 -4.4668292e-05 
 5180000   0.95154264   -4.3950101   0.65363921   -2.4329997 -0.00016594571 
 5181000    1.0512941   -4.1389315   0.19067813    -2.502724 0.00017111053 
 5182000   0.91788049   -3.6229098   0.31790546   -2.0429186 0.00022797253 
 5183000   0.88358674   -3.9960437   0.90818818   -1.8729238 -0.00049860856 
 5184000    1.3272762   -3.9813416    1.1752678  -0.98106896 -4.2213233e-05 
 5185000   0.55319653   -4.1840259   0.54163322   -2.8817475 -3.4105667e-05 
 5186000    0.9785815   -3.6992997   0.33102316    -2.022727 9.4601536e-05 
 5187000    1.1180779   -3.9460367   0.54473979   -1.8639398 2.5821953e-05 
 5188000   0.55334843   -3.8430418   0.49348861    -2.588699 -7.2485965e-05 
 5189000   0.84820456   -3.5535944   0.55408101   -1.8332322 0.00011856494 
 5190000    1.5544623   -3.3938015   0.26565194  -0.99076384 0.00021516599 
 5191000   0.85162365   -4.2648686   0.49564079   -2.5982453 0.00030930174 
 5192000   0.90202866   -3.9814134   0.71796593    -2.023158 -0.00027000814 
 5193000    1.1120711   -3.9406296   0.66878021   -1.7427516 9.5655499e-05 
 5194000   0.92611636   -4.4075414   0.61782165   -2.5163098 -0.00040586432 
 5195000   0.69962769   -4.0105245   0.60672583   -2.4418106 -0.0002365006 
 5196000   0.86394942   -4.0197547    0.2113558   -2.6204685 0.00018817106 
 5197000    1.2309678   -3.0043469    0.4297389  -0.88202723 0.00085208383 
 5198000    1.0750496   -3.7638893   0.43676789   -1.8489283 0.0001182809 
 5199000    1.1060046   -3.9082569   0.25830983   -2.1291907 0.00017392055 
 5200000     1.063835   -4.1014374     0.343035   -2.2956292 -7.6263838e-05 
 5201000   0.72763894   -3.6008973   0.32762019   -2.2727735 0.00037953015 
 5202000    1.1792541   -3.3829234   0.63618604    -1.125263 -0.00019378424 
 5203000    1.2306521   -3.6988672   0.48680182   -1.5199187 -0.00016533348 
 5204000   0.68787162    -3.833675   0.56589313   -2.3219584 0.00015267072 
 5205000   0.65145011    -3.968484   0.79222358   -2.2805165 8.6775579e-05 
 5206000   0.95854021   -3.6715878   0.36072624   -1.9928687 0.00044415478 
 5207000   0.75949266   -3.8135334   0.66670737   -2.1025236 8.8535965e-05 
 5208000    1.1659141   -3.9133568   0.40884294    -1.901382 -0.00015055459 
 5209000    1.2775246   -4.3611665   0.47374952   -2.1308207 -0.00021539949 
 5210000   0.97534278   -3.8125011   0.52735922   -1.9440455 -0.00016258694 
 5211000    1.1164456   -4.0495425   0.53832143   -1.9761084 -8.4412008e-06 
 5212000   0.85478388   -4.2277039   0.29212791   -2.7602481 -0.00014663996 
 5213000    1.0793164   -3.9239929   0.68147197   -1.7584609 0.00033413876 
 5214000   0.57453024   -3.7951237   0.33643881   -2.6687058 -0.00022403485 
 5215000   0.89468816   -3.6413959   0.46612206   -1.9450777 -0.00034764186 
 5216000   0.74995687   -3.6238997   0.25833738   -2.3343716 0.00039432641 
 5217000    1.1354301   -4.3437108   0.49313716   -2.2893574 -0.00016414189 
 5218000   0.91071679   -3.4871764   0.46813722   -1.7668036 -0.00030571677 
 5219000   0.67194352   -3.7755785   0.37045183   -2.4812043 0.00072770037 
 5220000   0.83581248   -3.8415707   0.78340478   -1.9089238 4.620242e-05 
 5221000   0.94583101   -4.2052987   0.25106676   -2.6537143 -0.00018638605 
 5222000    1.1108942   -3.6851503   0.22575567   -1.9319152 -1.5866377e-05 
 5223000    1.2842116   -3.9723536   0.71178973    -1.494773 0.00019430727 
 5224000   0.79398714   -4.0247707   0.38163841   -2.5513999 3.0009763e-06 
 5225000    1.0778757   -3.6218748   0.62207909   -1.5177167 0.00024451904 
 5226000   0.92192658   -3.7702095    1.0883654    -1.414195 -0.0001802888 
 5227000   0.81387218   -4.3773645   0.68252822   -2.5757621 -5.0433279e-05 
 5228000    1.1698833   -4.1162562   0.66926573   -1.8384009 -0.00013792565 
 5229000    1.0392102   -4.0225782   0.72337881   -1.8702853 -0.00021415538 
 5230000    1.1080778   -3.6134339   0.34788744   -1.7419394 0.00037092919 
 5231000     0.656648   -3.6840841   0.56388043   -2.2173127 -0.00014439761 
 5232000   0.85992121    -3.907179   0.86367448   -1.8611129 0.00030427293 
 5233000    1.0860408   -3.4519399    0.5006694   -1.4579645 -0.00019281705 
 5234000   0.97645833    -4.145483   0.57365591   -2.2291969 0.00013961099 
 5235000   0.88293893   -3.8489534   0.70576276   -1.9291497 -0.00025467109 
 5236000   0.84309429   -4.2307921   0.56436606   -2.5071714 -3.4393338e-05 
 5237000   0.94967278   -3.8309181   0.45275032   -2.0723677 -3.5454267e-05 
 5238000    1.4257119   -3.3860214   0.78063095  -0.64503661 -0.00054516489 
 5239000    1.1361899   -3.7438305   0.22692964   -1.9546397 0.00021862766 
 5240000   0.88445244   -3.5529682   0.24632728   -2.0905188 0.00028973823 
 5241000    1.3733576   -4.1124847   0.56917927   -1.6549388 -0.00049590755 
 5242000   0.69892618   -3.3831627     0.485166   -1.9369733 4.3031703e-05 
 5243000   0.44730844    -4.218119   0.30391098   -3.2991589 -9.8008582e-05 
 5244000   0.98250337   -3.9146772   0.78069796   -1.7830371 0.0001845624 
 5245000   0.94259124   -3.3583954   0.67617294   -1.3861595 -0.00033256578 
 5246000    1.1890631   -4.4093342   0.56944195   -2.2049305 5.2697746e-06 
 5247000    1.1577254   -4.2214128   0.47785176   -2.1516886 0.00032157899 
 5248000    1.0444717   -3.9453521   0.63593018   -1.8732733  6.50139e-05 
 5249000   0.82305077   -4.1028627   0.45236401   -2.5188039 7.9746379e-05 
 5250000    1.3967248   -3.8817165   0.37881452   -1.5824053 0.00042690175 
 5251000   0.64517533   -4.0860257   0.15962737   -3.0392822 8.5867476e-05 
 5252000    1.3731701    -4.130696   0.37429426    -1.868293 0.00020115115 
 5253000    1.1136958   -4.1748911   0.50232087   -2.1412384 0.00013941335 
 5254000   0.55737285   -4.1531273   0.48736792   -2.8993717 -0.00018140831 
 5255000   0.96444113   -3.7212746   0.46327733   -1.9318908 0.00029990213 
 5256000    0.8743486   -3.9543858   0.34411773   -2.4080388 0.00019288385 
 5257000    1.0107182   -3.6148915   0.26346616   -1.9616879 -0.00012953699 
 5258000   0.91853826   -3.7394693    0.2953087   -2.1811705 8.9384008e-05 
 5259000    1.1596162   -3.7018436   0.33556884   -1.7718024 -0.00017660304 
 5260000    1.1137983   -4.1829223    0.3242021   -2.3272475 -1.2421723e-05 
 5261000    1.5672263   -3.4960862   0.11649042   -1.2246596 0.00036909604 
 5262000   0.91364969    -4.078862   0.31249139   -2.5101023 0.00067734872 
 5263000    1.1019809    -3.868754   0.84694963   -1.5065806 -0.00020632318 
 5264000    1.0230523    -3.958144   0.68495159   -1.8664954 -0.00040118396 
 5265000    1.0847783   -4.1038766       0.4014   -2.2109065 7.5892668e-05 
 5266000    1.2174983   -3.8228384   0.98332947   -1.1654488 -0.0003448536 
 5267000    1.0125956   -3.9835159   0.36173015   -2.2294667 0.0001544592 
 5268000   0.95567153   -4.0192169   0.59134278   -2.1138257 8.5931734e-05 
 5269000   0.82708349    -3.506106   0.69426976   -1.6745965 -8.7618724e-05 
 5270000   0.59300788   -3.3975506   0.41633852   -2.1658262 6.7068223e-05 
 5271000   0.76777927   -3.9288494   0.24867903   -2.6244739 -5.2620703e-05 
 5272000    0.8976809   -3.7490575   0.92136806   -1.5933782 -7.0102126e-05 
 5273000   0.79992627   -4.2889722   0.56356935   -2.6255042 4.5379027e-05 
 5274000   0.97886715   -4.1791418    1.0568011   -1.7763984 -0.00024687157 
 5275000   0.87142389     -4.03897   0.70019456   -2.1405676 -7.3006583e-06 
 5276000    1.0620339   -3.9820903   0.41905616   -2.1027376 0.00083888612 
 5277000    1.3779034   -4.0371412   0.74604066   -1.3964834 0.0002602269 
 5278000    0.7022953   -3.9545256   0.65894776   -2.3299218 -0.00046779403 
 5279000   0.82930424   -3.8258217    0.6830555   -2.0024729 -0.00031400511 
 5280000     1.207439   -3.8701651    0.3360806   -1.8738559 5.7502849e-05 
 5281000    0.6074604   -3.0761226   0.78676762    -1.454097 0.00036874418 
 5282000    1.4973744   -4.0495273   0.27812193   -1.7125156 0.00054506603 
 5283000   0.66547416   -3.9731665   0.22409718   -2.8340424 0.0002342029 
 5284000    0.7958313   -3.7652032   0.42461603   -2.2463192 -0.00044275234 
 5285000    1.1630748   -3.8526637    0.5290131   -1.7244227 -0.00020821953 
 5286000   0.89363306   -3.7458754   0.33583223   -2.1812978 -3.0139737e-05 
 5287000   0.80406891   -3.7399972   0.28737429   -2.3470281 -4.1740591e-06 
 5288000   0.65175147   -4.0905828   0.38163707   -2.8127875 -3.866094e-05 
 5289000   0.75818553    -3.921995   0.30067929   -2.5788107 -7.5675292e-05 
 5290000   0.84314559   -3.8464852   0.42285087   -2.2643092 -0.00034717999 
 5291000    1.3738352   -4.1053763    1.1368338   -1.0795191 -0.00023633223 
 5292000   0.75214573   -4.2056526   0.74863816    -2.422814 -0.00034399332 
 5293000   0.71984734   -4.1094275   0.27498162   -2.8446558 -0.00023862759 
 5294000     1.268247   -4.1213049   0.51086047   -1.8666048 0.00026055527 
 5295000    1.2655493   -3.7578721   0.59081286   -1.4269291 -0.00011627072 
 5296000   0.81451537   -3.6431954   0.20827365   -2.3149631 0.00042273414 
 5297000   0.84543137   -4.1267006    1.2373077   -1.7269248 -0.00047520152 
 5298000   0.89529457   -4.5100605    0.2840956   -2.9949349 -0.00010764159 
 5299000    0.7255899   -4.0124316   0.69072252   -2.3240229 -0.00017341194 
 5300000   0.80512242   -4.1430667   0.47508945   -2.5609339 0.00015041522 
 5301000    1.3829074   -4.2433962   0.80073842   -1.5411601 6.1484839e-05 
 5302000    1.1138824   -3.4125633   0.18590442   -1.6950707 1.9646391e-05 
 5303000   0.90747837    -3.843205   0.23036531   -2.3650569 0.00020413284 
 5304000   0.55022235   -4.2171831   0.67005007   -2.7905773 -6.2013369e-06 
 5305000    0.8616942   -3.9357455   0.30123699   -2.4496789 0.00011469011 
 5306000   0.89644635   -3.2830801   0.38088583   -1.6695805 -0.00012566036 
 5307000    0.8700019   -3.8935657   0.50637441   -2.1909387 -9.4196682e-05 
 5308000   0.94642478   -4.3081841    0.4703722   -2.5364779 -0.00033285901 
 5309000    1.1393625    -3.699795    0.2348825   -1.8982891 9.4937836e-05 
 5310000   0.92182319   -4.0240928   0.56629517   -2.1902907 0.00010963214 
 5311000     1.167441   -3.6904303   0.73665717   -1.3485417 -9.8455373e-05 
 5312000   0.92250867    -3.953052   0.20895284   -2.4756497 0.00014285067 
 5313000    1.0299146   -4.1743245   0.66887866   -2.0893133 -8.3711585e-05 
 5314000     1.001923   -4.2334422   0.61545018    -2.240348 0.00017968808 
 5315000    1.0208395   -3.4599909   0.34503467   -1.7113019 -0.00031182337 
 5316000    1.1585395   -3.7844276   0.47732806   -1.7141076 -9.2932462e-05 
 5317000   0.94514829   -4.2035867   0.53046043   -2.3735473 -0.00022529446 
 5318000    1.1843742   -3.8090178   0.65971843   -1.5207848 -0.00029473729 
 5319000   0.68787957   -4.2337372   0.16634528   -3.1215575 -2.2599232e-05 
 5320000   0.96898646   -3.7510199    0.8575041   -1.5611595 0.00031141556 
 5321000   0.88633831   -4.0400356   0.46556933   -2.3557511 -0.00023937692 
 5322000    1.5572744   -4.0741425   0.86737177   -1.0655185 -0.00018918449 
 5323000    1.0905802    -3.985881   0.43936537   -2.0469679 3.2013747e-05 
 5324000    1.0145655    -4.043221   0.31425976   -2.3339338 -3.4763418e-05 
 5325000   0.76304195   -4.1819164    0.3572256   -2.7755082 -0.00012150035 
 5326000    1.2458804   -4.0865623   0.22526716   -2.1482096 0.00018613071 
 5327000   0.73183755   -3.7556368   0.22983344   -2.5195268 0.0002431421 
 5328000    1.0034046   -4.1330546    1.0632229   -1.6901503 -4.3562616e-05 
 5329000   0.95449687   -3.9870488   0.53336186   -2.1412537 -0.000125839 
 5330000    0.8819863   -4.2807223   0.28787387   -2.7801172 0.00022147852 
 5331000     1.504943    -3.667011   0.37633259   -1.2213819 -5.5443798e-06 
 5332000    1.0516927   -3.9735681   0.39347083   -2.1340199 -0.00016346979 
 5333000    1.1516836   -3.5999465   0.37920628   -1.6371752 -0.00029407387 
 5334000   0.89418002   -3.7750475   0.46765883   -2.0778912 0.00014192085 
 5335000   0.85096138   -3.9187223   0.59529701   -2.1533534 0.00014758671 
 5336000   0.59754646   -4.2240852   0.47533803   -2.9271208 -0.00018813156 
 5337000    1.0945991   -3.9948962   0.67477727   -1.8150451 5.3512469e-05 
 5338000   0.90185209   -4.4083163    0.2261153   -2.9421544 4.4857234e-05 
 5339000    1.0655006   -4.3284111    1.1281639    -1.735184 -5.1798171e-05 
 5340000   0.89850853   -3.9273243   0.55946184   -2.1324132 -2.1945444e-05 
 5341000   0.77367491   -3.8259569   0.72382673   -2.0383271 -0.00034577846 
 5342000     1.264188   -4.0544137   0.77096972   -1.5451856 -0.00017937234 
 5343000    1.0148718   -4.2980146   0.31984065   -2.5827252 -0.00010913112 
 5344000   0.75714209   -3.7890701   0.22581324   -2.5221865 -0.00026177312 
 5345000   0.77593307   -4.0542188    1.0143394   -1.9729714 -0.00026286781 
 5346000    1.3477809   -3.8062965   0.57357874    -1.379519 -0.00017955325 
 5347000    1.0191326   -4.3046618   0.54670919   -2.3566453 -1.6574423e-05 
 5348000   0.69479432   -4.0581122   0.49905655   -2.6037134 -0.00036192797 
 5349000    1.0110635    -3.976141   0.32334355   -2.2625852 0.00012957652 
 5350000   0.85207091   -3.6856653   0.16365864   -2.3504092 0.00032402456 
 5351000   0.81031112   -4.1662254   0.51223696   -2.5398106 -0.00019956195 
 5352000    1.1083446   -3.7353042   0.71297986   -1.4983505 -7.8699287e-05 
 5353000    1.4628563   -4.0343621   0.28233984   -1.7405949 0.00038958912 
 5354000   0.73206786    -4.261206   0.57459988   -2.6800128 -0.00018117221 
 5355000    1.5285267   -4.0423722   0.21210915   -1.7285389 0.00021544966 
 5356000   0.68730478   -4.0361683   0.36617598   -2.7249482 -0.00018554079 
 5357000   0.95395763   -3.8532954   0.34313832   -2.1984653 7.5147015e-05 
 5358000    1.2086619   -4.3655924   0.59206966   -2.1116126 0.00010296867 
 5359000   0.97302807   -4.0924884   0.33450797   -2.4200668 -2.5617556e-05 
 5360000    1.5238655   -3.7932569   0.65855297   -1.0393889 -0.00030858142 
 5361000   0.59027601   -3.2289613   0.34395994   -2.0733719 -0.00011112045 
 5362000     0.775776   -4.1118109    0.2201764   -2.8249425 0.00013237462 
 5363000    1.1462948    -3.639303   0.50012799   -1.5630197 -9.0197125e-05 
 5364000   0.99072728   -4.0696548   0.30011983    -2.407285 -5.6730263e-05 
 5365000   0.77640893   -3.5377401   0.99446584    -1.475712 -0.00065385952 
 5366000    1.2557519   -3.9556274   0.30816288   -1.9208056 2.4763663e-05 
 5367000   0.55915654   -4.2792715   0.55910069   -2.9513306 -3.4128054e-06 
 5368000    1.1073614   -3.3944484   0.33985776   -1.5319686 -5.6575873e-05 
 5369000   0.81381506   -4.0380818    0.3325257   -2.5865603 -2.5833452e-05 
 5370000    1.0444009   -3.8703629   0.41308925   -2.0212225 0.00016556416 
 5371000    1.3187743    -4.076244   0.75248188   -1.5104474 -9.3518712e-05 
 5372000   0.78442564   -4.3684141   0.75391397   -2.5359149 -0.00014573547 
 5373000   0.95555518   -3.9400798   0.88424625   -1.7419452 -0.00038558817 
 5374000    1.0225342   -4.2622827   0.46224305   -2.3940552 -0.00018627908 
 5375000     1.116266   -3.6124237   0.14964447   -1.9279134 0.00011499604 
 5376000    1.5246134   -3.1485296   0.65665979  -0.39552645 0.00010937752 
 5377000   0.91744193    -3.364473   0.49390434    -1.609086 -0.00032460752 
 5378000    0.7439651   -4.1253434   0.55569416   -2.5466973 0.00012264138 
 5379000    1.0776146   -4.2005064   0.91665146   -1.8021349 -0.00045189225 
 5380000    1.2110075   -3.9895828    1.1081084   -1.2163391 -0.00031830785 
 5381000    0.8505604   -3.8315927   0.49866973   -2.1634024 0.00021890742 
 5382000     1.188038     -3.82892   0.39889121   -1.7964766 -4.9959426e-05 
 5383000    1.0945669   -4.2474789   0.78329039   -1.9591589 -0.00019309104 
 5384000    1.0938327    -3.393023   0.34879922   -1.5402038 0.00014584866 
 5385000   0.94212309    -4.271209   0.91097123   -2.0648185 -0.00011608366 
 5386000    1.1102323    -4.200281   0.21420113   -2.4595104 -6.2522408e-05 
 5387000   0.91968787   -3.1253377   0.66300322   -1.1977636 8.613411e-05 
 5388000    1.1615812     -3.56617   0.52813997    -1.440856 -0.00010875287 
 5389000    1.3520026   -3.9844152   0.44334985   -1.6820618 -0.0001816893 
 5390000    1.1171054   -3.4176317   0.33982073    -1.541791 -0.00024894818 
 5391000    1.0378047   -4.0191921   0.37627531   -2.2159354 -0.00012904657 
 5392000     1.195244   -3.7427912   0.34790922   -1.7514215 0.00038660127 
 5393000   0.84611864   -3.8326915  0.089973859   -2.5793045 0.00042361967 
 5394000   0.80254915   -3.4953607   0.86938271   -1.5224729 -0.00039767279 
 5395000   0.67933686    -3.950561   0.59079384   -2.4256789 0.00014678796 
 5396000    0.9069941   -3.9623978   0.66501136   -2.0502696 0.00028266003 
 5397000   0.63716841   -4.1587483   0.74877798   -2.5338637 -0.00013118125 
 5398000    1.2379704   -2.9414784   0.42233829  -0.81693088 5.0649723e-05 
 5399000   0.87157897   -3.9326222   0.33795387   -2.3962472 -7.0282988e-05 
 5400000     1.105022   -3.5407845    1.0603263  -0.96105293 0.00016938983 
 5401000    1.2998332   -4.0975911   0.45832797   -1.8519924 0.00022550681 
 5402000    1.3462329   -4.0597281   0.73559314   -1.4730647 -0.00011019415 
 5403000    1.0884015   -4.0106197   0.55258055    -1.961487 -0.00034503899 
 5404000    1.1625461   -3.7601261   0.63243041   -1.5291947 0.00012958401 
 5405000    0.9400386   -4.1146442   0.47888026   -2.3432109 3.3820568e-05 
 5406000     1.120379   -3.5439251   0.73843223   -1.2649718 8.719065e-06 
 5407000     1.071328   -4.0491557   0.23802214   -2.3380575 0.00038667765 
 5408000    0.7856475   -4.1418857   0.63744264   -2.4241777 8.668267e-05 
 5409000   0.83886882   -3.2398521   0.51727745     -1.56913 -8.6036863e-06 
 5410000   0.74122595   -4.0181348   0.66884702   -2.3301021 -0.000186961 
 5411000   0.91168722   -3.4573744   0.91110214   -1.2927023 -0.00011388079 
 5412000   0.80827325   -3.9010972   0.23322604   -2.5564954 6.5193655e-05 
 5413000     1.118937   -3.4960447   0.48305628     -1.47445 -0.00025388139 
 5414000   0.66167359   -4.1587622   0.29388958   -2.9550714 2.9104066e-05 
 5415000   0.93087608   -3.9510083    0.7718933   -1.8991603 3.0275351e-05 
 5416000   0.77999333   -4.2111517   0.25913344   -2.8795274 -0.00018866038 
 5417000    1.0904913   -3.7567039   0.56000993   -1.6972684 0.00025977297 
 5418000   0.64535385   -3.9831329    0.3769865   -2.7187848 4.2176835e-05 
 5419000    1.0419857   -4.0377363   0.26864883    -2.336357 7.293136e-05 
 5420000    1.1622458   -3.7457177   0.30120092   -1.8464287 0.00011264701 
 5421000     1.240793   -4.3675013   0.58534293    -2.076068 -0.0002349208 
 5422000    1.2764407     -3.74102   0.31376679   -1.6721473 5.5440196e-05 
 5423000   0.64928606   -4.0135616   0.72896587   -2.3918274 -0.00010908776 
 5424000    1.0916283   -3.7088466   0.32875585   -1.8791018 9.4699803e-05 
 5425000    1.9379342   -4.0578668   0.53558977  -0.85761743 0.00079516914 
 5426000   0.97442654   -3.8180567   0.24694519    -2.231275 -0.00010662328 
 5427000   0.98074212   -3.7157843   0.18123377   -2.1860301 0.0001603192 
 5428000   0.60780335   -3.1280603    0.1060717    -2.186259 2.3751123e-05 
 5429000    1.0397125   -4.1439434   0.48879843   -2.2255403 0.00011225633 
 5430000    1.0643082   -3.7457952   0.24140907   -2.0409624 -0.00011543797 
 5431000    1.1335445   -4.0938304    1.1241961   -1.4110106 1.2770699e-05 
 5432000   0.78200568   -3.6096409   0.60383897   -1.9305441 8.3252471e-05 
 5433000    1.0629696   -3.5719113   0.16913353   -1.9411945 2.3102316e-05 
 5434000   0.52384026   -3.9605386   0.51521065   -2.7250476 -0.00019156601 
 5435000    1.1103021   -3.9218612   0.41201708   -1.9831787 0.00013913206 
 5436000   0.58312609   -4.0283148   0.43370307   -2.7928134 -0.00026704801 
 5437000    1.1716924   -3.6794695    0.5556512   -1.5127412 0.00071432859 
 5438000   0.92152637    -3.771349   0.50223693   -2.0020133 0.00034181995 
 5439000    0.8163273   -3.9462226   0.27872428   -2.5450483 -4.3051695e-05 
 5440000   0.90727781   -4.0698985   0.50042992   -2.3219616 9.6573348e-05 
 5441000    1.1872755   -4.1476506   0.50760966   -2.0075371 -2.3462965e-05 
 5442000   0.92908151   -3.9230214   0.25403954   -2.3914948 3.1023822e-05 
 5443000    1.3709082   -3.7579245   0.58644998   -1.2864758 -0.00010138919 
 5444000   0.83966589   -4.3905961   0.75921057    -2.476845 -3.2358728e-05 
 5445000    1.2328023   -3.6107374   0.52099942   -1.3946349 0.00019761489 
 5446000    1.1432737   -4.0170216   0.40896553   -2.0360547 -4.7678546e-05 
 5447000   0.75502404   -3.7290138    0.3316456   -2.3592101 -0.00021277865 
 5448000    1.2913247   -4.2398351   0.33714216   -2.1271214 3.6602999e-05 
 5449000    1.0039284   -4.3178861   0.59627994   -2.3412045 3.4376702e-05 
 5450000    1.1758184   -3.7633357   0.35439139    -1.792194 0.00017908956 
 5451000    1.0100387   -3.9385762   0.65145045   -1.8983226 -0.00033742022 
 5452000    1.0258038   -4.1561133   0.19557673   -2.5500564 0.00015658294 
 5453000   0.90799713    -4.299262   0.25725519   -2.7935107 3.3183133e-05 
 5454000    1.1533732   -3.6368838   0.45761079   -1.5933849 -0.00020789921 
 5455000   0.63405582   -3.9882702   0.24780557   -2.8686379 0.00011035862 
 5456000    1.3133542   -4.1119618   0.49758026   -1.8085196 0.00028504618 
 5457000    0.7007681    -4.144299   0.25871908   -2.9220238 -3.3516535e-05 
 5458000   0.98467616   -4.2064614   0.73501943   -2.1175122 -2.7880286e-05 
 5459000    1.3892149   -3.7997692   0.41124686   -1.4783519 0.0002359091 
 5460000    1.0172297   -4.1441384    0.6702137   -2.0752339 -0.00017087445 
 5461000    0.6780116   -4.3251279    0.3373596   -3.0555023 -0.00023414572 
 5462000    1.1264892   -3.9095972   0.61784386   -1.7428306 0.00014934883 
 5463000   0.85083575   -4.1997292   0.63179999     -2.39803 2.1310996e-05 
 5464000   0.77742734   -3.9582439   0.52009388   -2.3691874 -0.0001346518 
 5465000   0.86604354    -3.705164   0.35911485   -2.1552393 8.8878564e-05 
 5466000    1.1316283      -4.0328   0.98233804   -1.4944731 -0.00053164762 
 5467000    1.2678233   -4.0572475    0.4555499   -1.8584406 -0.00032627505 
 5468000   0.76167407   -4.2420483     0.638675   -2.5560714 0.00017357299 
 5469000     0.897629   -3.8015957   0.59548987    -1.971866 -2.9084218e-05 
 5470000    1.2193624   -4.4100059   0.29598108   -2.4374016 0.00042080658 
 5471000    1.2144432   -3.6384524    0.4110239   -1.5575691 0.00025680823 
 5472000   0.95159403   -4.1627782   0.42533782   -2.4289986 3.548958e-06 
 5473000    1.3338176   -3.9450276   0.25407549   -1.8569529 0.00033633825 
 5474000    1.2576833    -3.972636   0.45786643    -1.785455 0.00018648683 
 5475000   0.68202856   -3.7791913   0.62272247   -2.2186796 0.00011113829 
 5476000    1.3496984   -4.5271731   0.47447938   -2.1968584 8.9799922e-05 
 5477000   0.69869947   -4.5501002    0.3555274   -3.2338611 7.819564e-05 
 5478000    1.0783523   -3.5866623    0.3443683   -1.7595596 0.00069696441 
 5479000   0.91019408   -3.7498653   0.14293573   -2.3554127 -9.3681033e-05 
 5480000   0.74566053   -3.9723698    0.6297016    -2.317385 -0.00047809461 
 5481000   0.81360259   -4.4985417   0.53568517    -2.844153 5.7374884e-05 
 5482000   0.96551316   -4.0907846   0.41229532   -2.3509086 0.00063090074 
 5483000   0.90262513   -3.8649813   0.54258639   -2.0812853 -6.426201e-05 
 5484000   0.74980136   -4.2601338   0.12903972   -3.1001172 -9.5694649e-05 
 5485000   0.94021901   -3.8604927   0.32825283   -2.2394387 -0.00015773121 
 5486000     0.945702   -3.5580028   0.18586388   -2.0717987 -0.00012147058 
 5487000    1.3512235   -4.2916324   0.29041797   -2.1432821 -6.6279143e-05 
 5488000    1.0179864   -3.6589459   0.49099336   -1.7682212 -8.5848039e-05 
 5489000    1.2568633   -4.0902907   0.37897302   -1.9831307 -0.00023973045 
 5490000    1.3047825   -3.8783349   0.65309644   -1.4311625 -0.00031361544 
 5491000   0.97775768   -3.9595266   0.28543881    -2.329671 -0.00017123638 
 5492000    0.8764907   -4.1102236   0.24020418   -2.6648447 5.0881368e-05 
 5493000   0.78036441   -4.2238047   0.45361943   -2.6971842 4.425844e-05 
 5494000    1.0591136    -4.096866   0.46499271    -2.175592 0.00010461678 
 5495000    1.1713503   -4.2983725   0.35855127   -2.3292146 0.00014350941 
 5496000    1.0224861   -4.3174541   0.23830377   -2.6732319 0.00030453215 
 5497000   0.96098813   -4.1131255   0.65281452   -2.1389523 0.00033810106 
 5498000   0.83922053   -4.0734879   0.29215131   -2.6274084 0.00036738423 
 5499000    1.0940111   -4.1169374   0.60908843   -2.0035837 -0.00020100131 
 5500000    1.0408811   -3.7521614   0.31796916   -2.0029807 -5.4715709e-05 
 5501000   0.82067694   -3.7437066   0.39590032   -2.2193754 2.2368495e-05 
 5502000   0.60160629   -4.3144089   0.52166335   -2.9655369 0.00016280958 
 5503000    1.6778361   -4.2452956   0.31690157   -1.6213694 -5.6077741e-05 
 5504000    1.3137484   -4.1595984  0.041242107   -2.3119523 0.00032422468 
 5505000   0.80205754   -3.8895422   0.39870271   -2.3880103 -0.00012184995 
 5506000    1.1615903   -4.1107411   0.32868108   -2.1848733 0.00010573691 
 5507000   0.84446156   -3.9442407   0.55083182   -2.2322742 -2.4209368e-05 
 5508000   0.83585106    -4.207545   0.32581684   -2.7324329 -5.5836574e-05 
 5509000   0.88667295   -3.7212902   0.22671869   -2.2753962 -5.9227702e-06 
 5510000   0.78794769   -4.3761109   0.42837455   -2.8643083 1.0825511e-05 
 5511000   0.67199693   -4.0753445   0.18924675    -2.962102 -1.5509257e-05 
 5512000   0.78094326   -4.2063447    0.3627195   -2.7698282 -0.00036999587 
 5513000   0.59331886   -4.0384196   0.16780798   -3.0547982 7.2544109e-06 
 5514000    1.1010983   -3.9591963   0.35662404    -2.088562 -8.5526086e-05 
 5515000    1.3922473   -3.9963072   0.20418734   -1.8777797 -0.00021267287 
 5516000   0.62781605    -4.218082   0.50226888   -2.8525661 -0.00030787044 
 5517000   0.94166028   -4.3343582   0.35472849   -2.6848468 6.1688932e-05 
 5518000    1.0539445   -4.1019446   0.32319738   -2.3295735 0.00022532398 
 5519000    1.0455421   -3.9321559   0.31675556     -2.17778 -2.1277518e-05 
 5520000    0.7303918    -4.311498   0.34568379   -2.9615255 0.0001813526 
 5521000    1.0475706      -3.9914   0.48577039   -2.0652201 -9.833127e-05 
 5522000    1.1363082   -3.3787952    0.6081649   -1.2082065 -8.0959914e-05 
 5523000   0.90192613   -4.0079986   0.60420094   -2.1636493 -0.00026916862 
 5524000   0.96884223   -4.2122993   0.53317767   -2.3469636 0.00017004198 
 5525000    1.0886943   -4.4689157   0.49709931   -2.4748617 -0.00029138919 
 5526000   0.90034377   -4.2782466   0.42528026   -2.6149937 3.1502789e-05 
 5527000   0.70173805    -3.915157   0.34702391   -2.6032432 0.00017465208 
 5528000   0.71005868    -4.225039   0.37769195   -2.8710164 -0.00025678222 
 5529000   0.71519938   -4.4191484   0.77340981   -2.6623394 -0.00017864324 
 5530000     1.295591     -4.47224   0.42595252   -2.2648499 0.00027512331 
 5531000    1.5205307   -3.7699647   0.46449113   -1.2147439 -0.00011792417 
 5532000    1.0675464   -3.9712521   0.76557523   -1.7378005 -0.00043539941 
 5533000    1.0837212   -3.9947127    0.2816043   -2.2229917 0.00031572312 
 5534000   0.51200003   -3.9651352   0.35263823   -2.9084969 -8.978709e-06 
 5535000    1.0091504   -4.3293478    0.8842177   -2.0575484 -0.00050218846 
 5536000   0.75856184   -4.0816858   0.40075828    -2.637905 6.4000813e-05 
 5537000   0.79027174    -4.238921   0.48116243    -2.671135 1.2633938e-05 
 5538000   0.89198162   -4.0438674   0.30443922   -2.5129534 0.00012470408 
 5539000   0.90887678   -4.2888423   0.51095741   -2.5281793 0.00018282791 
 5540000     1.000256     -4.27863   0.13095494   -2.7723231 0.00025133469 
 5541000    1.0781006   -3.9881841   0.21857265   -2.2872231 0.00032574843 
 5542000   0.75410902   -4.2598551   0.46857081   -2.7543844 -0.00011959786 
 5543000   0.80642503   -4.1433037   0.51887296   -2.5155963 -0.00017209592 
 5544000   0.79663376   -4.1107635   0.58956239   -2.4258297 -0.0001535221 
 5545000    1.0540621   -3.9580167   0.45067135     -2.05801 0.00016738696 
 5546000    1.0481244   -4.4122418    0.2416282   -2.7294426 -5.6647786e-05 
 5547000    1.1842476    -4.256001   0.51244984   -2.1152108 0.00027054585 
 5548000   0.87988608   -4.0644745   0.37737552   -2.4772557 0.0002379409 
 5549000   0.92844223   -4.2402023   0.36885839   -2.5947358 -0.00025516108 
 5550000   0.74851972   -4.1269958   0.46831773   -2.6294635 0.00018895441 
 5551000   0.81342426   -4.4572312   0.29276725   -3.0460056 -0.00018291921 
 5552000    1.0295726    -4.061702   0.51359022   -2.1324494 5.7656441e-05 
 5553000    1.4147513   -4.3647949   0.32248728   -2.0970247 -0.00021020939 
 5554000    1.0360783   -4.3435264   0.32712485   -2.5917939 -1.8020623e-05 
 5555000   0.69704475   -4.1631213   0.44729712   -2.7573876 -0.00026989676 
 5556000   0.84930922   -3.9816157   0.19310622   -2.6207093 -0.00015199551 
 5557000   0.95971087   -4.3111277   0.71330403   -2.2782212 -0.00010574016 
 5558000    1.1925858   -3.7974089   0.79175251    -1.365851 0.00012512306 
 5559000    1.1917236   -4.2686476   0.41824842   -2.2117792 -3.9809639e-05 
 5560000   0.58920809    -4.203513   0.38549102   -3.0078609 0.00026275118 
 5561000   0.96391958   -4.2005314    0.4470848   -2.4280572 -0.00025824008 
 5562000   0.88801692   -4.3505672   0.20924772   -2.9202962 8.104304e-05 
 5563000    1.0271256   -4.0994989   0.25846377   -2.4287374 -0.00022740444 
 5564000     1.368019   -4.0271435   0.52040145   -1.6257159 -0.00013969772 
 5565000    1.1817329   -4.1167073   0.37439398   -2.1174305 3.4659559e-05 
 5566000    1.0085835   -4.3937826   0.38960543   -2.6173748 -0.00014819744 
 5567000    1.2380587   -3.5782198   0.23120089   -1.6446881 0.00018635551 
 5568000   0.64715082    -4.126998   0.27883157   -2.9583341 -8.8447991e-05 
 5569000    1.0313434   -3.9695612   0.37890203   -2.1725619 -7.6166157e-05 
 5570000    1.0570346   -4.1873102   0.60801098   -2.1258766 1.5471148e-05 
 5571000     1.220767   -3.7032224   0.37726428   -1.6474035 -0.00017589667 
 5572000   0.80989974   -4.0198341   0.15527302   -2.7509489 8.9233218e-05 
 5573000     0.737006   -4.1760703   0.47078731   -2.6918997 -0.00015693661 
 5574000    1.3035048   -4.0172302   0.88543065   -1.3394805 -0.00034920878 
 5575000    1.0858973   -4.2920602   0.69841606   -2.1005353 1.7982625e-05 
 5576000   0.88704989   -3.8409986   0.27229064   -2.3490143 -0.00035250047 
 5577000   0.82668402   -3.8273222   0.28448092   -2.4061507 7.8823676e-06 
 5578000   0.98017919   -4.1459043   0.25510543   -2.5430525 0.00012526379 
 5579000   0.76038287   -4.4184586   0.22896814    -3.143964 -0.00012609776 
 5580000   0.72271093   -4.2738073   0.62965826   -2.6504215 -0.00024586294 
 5581000      1.05655   -4.1204743   0.37847768   -2.2892403 0.00044661582 
 5582000    1.2490833   -4.1717507   0.69738951   -1.7568717 2.4033055e-05 
 5583000   0.82325432   -4.2711084   0.57299964   -2.5661341 -8.1182276e-05 
 5584000   0.56095776   -4.2751094   0.61125579   -2.8925367 0.0002274913 
 5585000     1.299903   -3.9141075    0.3890802   -1.7376606 0.00011801528 
 5586000   0.96361775   -4.1853214    0.2303569   -2.6299901 0.00012499502 
 5587000    1.4723231   -4.0479437   0.30254699   -1.7209524 -1.6395782e-05 
 5588000    1.3728013   -4.1365407   0.19265659   -2.0562823 -0.00017582779 
 5589000    1.0833848   -3.8773617   0.32300227   -2.0647054 0.00064915565 
 5590000   0.76068372   -3.7314692   0.41640527   -2.2691238 -7.0701085e-05 
 5591000    1.1070633   -4.1295699    0.3076408   -2.2997171 0.0001984912 
 5592000    1.1582499   -4.1453269   0.52427481   -2.0284585 0.00065078551 
 5593000   0.68619131   -4.5336054   0.54329152   -3.0468008 -0.00023774934 
 5594000   0.86892784   -4.2899202   0.50252321   -2.5926212 -2.8418505e-05 
 5595000   0.95003058    -3.739344   0.61653321   -1.8165187 -0.00039592806 
 5596000   0.90744017   -3.7365815   0.27601796   -2.2128333 0.00012430247 
 5597000   0.62855596   -3.5048507   0.39412544   -2.2464608 0.00018499845 
 5598000   0.70301745   -4.2659237   0.37908906   -2.9201856 0.00012334013 
 5599000    1.1532638    -4.324718   0.55115238   -2.1878279 -0.00040905564 
 5600000    1.1848009   -4.1829383   0.37733057   -2.1765065 0.00011274741 
 5601000   0.88991743   -3.8417886   0.61691102   -2.0012411 -0.00030788003 
 5602000    1.3657157   -4.1545771   0.42625195    -1.850466 0.00035085322 
 5603000    1.3663329   -4.2120275   0.29402765   -2.0392921 0.00040884564 
 5604000    0.9954856   -4.3009668   0.17642434   -2.7557497 0.00045103304 
 5605000   0.74243494   -4.0963349   0.60610016   -2.4693867 -0.00041931621 
 5606000    1.0081126   -4.2366559   0.41036969   -2.4401315 -2.480752e-05 
 5607000    1.0714303     -3.96573   0.40446683   -2.0880465 0.00039526559 
 5608000   0.99005182   -3.8103025    0.4840374   -1.9649439 9.085709e-06 
 5609000   0.82563841   -3.2868661   0.37257784   -1.7790355 -5.8733187e-05 
 5610000    1.1044943   -4.1444599   0.76032526    -1.865455 -8.451353e-05 
 5611000    1.0037714   -3.9569689     0.331992   -2.2447912 0.0002044538 
 5612000    1.2217072   -3.3815572   0.55084796   -1.1508618 -0.00033765029 
 5613000    1.0271173   -4.1610169   0.61552562    -2.133205 -0.00011500269 
 5614000    1.1180533   -4.0459488   0.18749239   -2.3211331 5.6786731e-05 
 5615000    1.2827935   -3.9019433   0.33636996   -1.8017323 1.4924131e-05 
 5616000   0.94778849   -4.5384675   0.47832384   -2.7569345 -0.00012311102 
 5617000   0.90963489   -3.9485436   0.44616819   -2.2516275 -5.4196985e-05 
 5618000    0.6545703   -3.4775971   0.40743559   -2.1701274 -0.00036178615 
 5619000   0.84925685   -3.9472533   0.44269835   -2.3368268 -9.8995488e-05 
 5620000   0.67881138   -4.3625032   0.47663501   -2.9525025 -9.4176433e-05 
 5621000   0.65941101   -4.1907171   0.45684807   -2.8271789 -0.00015110143 
 5622000    1.0444046   -3.9084862   0.90883487   -1.5635951 -0.00013858358 
 5623000   0.80894391   -3.7620657    0.5355932   -2.1141746 4.5631281e-05 
 5624000   0.82918032   -4.4787583   0.56651932    -2.772116 -0.00025958603 
 5625000    1.1158864   -3.4141678   0.30252729   -1.5772966  0.000132309 
 5626000    1.1078262   -4.1469819    0.4706274   -2.1530935 0.0003037717 
 5627000    1.0415853   -3.4884596   0.50756475    -1.548715 0.00020113267 
 5628000   0.83897117   -4.0462797   0.42723288   -2.4654615 0.00025877381 
 5629000   0.66254338   -4.1630443   0.23050453   -3.0215426 0.00036303119 
 5630000     1.043403   -3.9786139   0.35883123   -2.1851036 0.00062940497 
 5631000    1.1156832   -4.1904864   0.66801477   -1.9884072 -0.00012763377 
 5632000    1.1244733   -4.0246588   0.90832915   -1.5701788 -0.00025691988 
 5633000   0.92854742   -3.2623398   0.31940899   -1.6661781 0.00042999287 
 5634000    1.1959377   -4.2681049   0.84092167   -1.7827689 -0.00047824265 
 5635000    1.0105406    -4.217451   0.53389154   -2.2940661 -0.00040254254 
 5636000   0.75173504   -3.4705544   0.48087033   -1.9560484 7.3596135e-05 
 5637000   0.82482373   -3.7392105   0.42984131   -2.1752365 -2.7869926e-05 
 5638000    1.3469228   -3.4116032   0.87679703  -0.68278729 0.00048598165 
 5639000    1.1516438   -4.1032483   0.30238431   -2.2173537 -0.00027886188 
 5640000   0.92926442   -3.8163971   0.36218093   -2.1764776 -0.00027875904 
 5641000   0.87523344    -3.740039    0.5737802   -1.9628128 0.0005092218 
 5642000    1.1956443   -3.7740264   0.28556476   -1.8444508 0.00052351846 
 5643000   0.67981156   -3.5296531   0.34322901   -2.2516832 0.00013533869 
 5644000    1.3387874   -4.2997966   0.22767316   -2.2312908 0.00034040963 
 5645000    1.0798317    -3.386122   0.83769536    -1.063658 -0.00051294752 
 5646000    1.0610982   -3.8949697   0.44727974   -1.9886799 5.0756339e-05 
 5647000   0.90199083   -4.0874051    0.3396619   -2.5075058 0.00010899157 
 5648000    1.3605303   -3.8471751    0.4040419   -1.5724041 0.00017989242 
 5649000    1.2975166    -3.210456   0.79491591  -0.63145481 0.00039756041 
 5650000     1.569021   -3.6366633   0.60844841  -0.87081104 -0.00025044522 
 5651000    1.1990726   -3.8666413    0.5230088   -1.6949077 -0.00040291205 
 5652000   0.79473332   -3.2415235   0.40315213   -1.7456131 -0.0002221393 
 5653000     1.014005   -4.2941805   0.54279625   -2.3571274 -6.7610887e-05 
 5654000   0.85378895   -4.4325848   0.33936728   -2.9192577 -0.00013755443 
 5655000    1.0269323   -3.8280896   0.52595799   -1.8900997 -0.00016864117 
 5656000    1.1690987   -3.6939042   0.36233881   -1.7240546 -0.00026649556 
 5657000   0.79923332   -4.3592305   0.70873851   -2.5515462 -3.0634557e-05 
 5658000    1.1439123   -3.5618432   0.61716296   -1.3718008 -0.0001755747 
 5659000    1.2137352   -4.2035767   0.47473724   -2.0599536 -6.8919687e-05 
 5660000    1.2165734   -3.3872407   0.57338865   -1.1410636 0.00038441753 
 5661000   0.86680271   -4.1375272    0.7004033   -2.2452702 -0.00013296708 
 5662000   0.87315274   -3.7832691   0.28433859   -2.2983455 -4.8157002e-06 
 5663000    1.4027851   -3.8668668   0.20671231   -1.7313249 0.00034263936 
 5664000    1.1792591   -3.7529327   0.69071813   -1.4407334 -0.00031451536 
 5665000   0.93685496   -4.0436018   0.83906868   -1.9163575 6.0822359e-05 
 5666000   0.68834449   -4.4306282   0.40687054    -3.077284 -0.00032850577 
 5667000   0.64937817   -3.5710324   0.39355992   -2.2845775 -3.7031412e-05 
 5668000   0.65090588   -4.2357671   0.15480844   -3.1859631 5.3257175e-05 
 5669000    1.1160559   -3.9159026    0.4929425   -1.8883832 -0.0001431425 
 5670000    1.0851291    -4.279907   0.72385872   -2.0639957 -3.6363906e-05 
 5671000   0.93264327    -4.074682   0.73711731   -2.0551802 0.00010111098 
 5672000    1.4124325   -3.9442221   0.40561592   -1.5965115 -3.2601427e-06 
 5673000   0.70192839   -3.9284711   0.40254902   -2.5607705 -0.0003519912 
 5674000    0.8712499   -4.1163749   0.18183568   -2.7365706 0.00016031807 
 5675000   0.75703237   -4.1663366   0.18473625   -2.9406808 4.6325574e-05 
 5676000    1.0856283   -3.9965858   0.66973461   -1.8341123 0.00012401595 
 5677000    1.1858882   -3.8054649   0.52233125   -1.6525374 -0.00039545521 
 5678000   0.67377004   -4.1493189    0.2712238   -2.9516613 0.00025250251 
 5679000    1.2153755   -3.6273627   0.86374673   -1.0924747 0.00043149567 
 5680000   0.94231075   -4.0516934   0.20289819   -2.5531179 0.00015034136 
 5681000   0.77958257   -4.3089326   0.22795588   -3.0090507 -0.00017535738 
 5682000    1.2455079   -3.9771571   0.21498698   -2.0495967 -0.00016335463 
 5683000   0.70438743   -3.9598775   0.16187138   -2.8294734 -4.1163898e-05 
 5684000    1.0755285   -4.1818624    0.2686756   -2.4343351 -0.0002176206 
 5685000   0.89863325   -4.1614234    0.5870153   -2.3387874 2.9054619e-05 
 5686000    1.5315758   -3.6719644    0.4061193   -1.1599283 0.00019133438 
 5687000    1.0289183   -3.8234636   0.32492824   -2.0837727 -0.00028410819 
 5688000   0.63202079   -4.1353153   0.27033521   -2.9959515 0.00049094268 
 5689000    1.1649802   -3.6946495   0.40433294   -1.6884687 0.00014623148 
 5690000    1.0486883   -4.1647763   0.85498926   -1.8678406 -0.00044119124 
 5691000   0.70294657   -4.4727384    0.6326044   -2.8735824 -0.0003000512 
 5692000    0.9053346   -3.7106571   0.23464591   -2.2311762 0.00022373085 
 5693000   0.95694153   -3.9613798   0.45150966   -2.1940755 -0.00025630903 
 5694000   0.87782646    -4.361313   0.58168855    -2.572613 0.00020224119 
 5695000    1.1048713   -3.8849478   0.29751228   -2.0682375 7.7045941e-05 
 5696000    1.0641275   -3.9623588   0.48768901   -2.0114945 0.00035179505 
 5697000   0.95099186   -4.1314524   0.48228907   -2.3415495 0.00022077019 
 5698000   0.96099669   -3.8247819   0.49885885   -2.0045526 0.00035849269 
 5699000    1.0637399   -3.8782119   0.41444661   -2.0011229 -0.00032067862 
 5700000   0.89260784   -4.1781605   0.68038618   -2.2704385 -0.00035810369 
 5701000   0.89958334   -4.1569881   0.43780115   -2.4822598 3.0268983e-05 
 5702000   0.80667578   -4.1258424   0.29493092   -2.7217323 4.4173322e-05 
 5703000    1.1196008   -3.9735549   0.31838151   -2.1157223 0.00044534575 
 5704000   0.99005223     -4.08825   0.27269033   -2.4542378 -5.4956065e-05 
 5705000    1.1649547      -3.7574   0.38035094   -1.7752363 -2.448252e-05 
 5706000   0.92820917   -4.1781829   0.33981215   -2.5620832 -0.00011417865 
 5707000   0.87955335   -4.3593753   0.29839859   -2.8515908 0.00038349998 
 5708000   0.81948293   -3.7968648   0.30741586   -2.3626599 -8.3478551e-05 
 5709000    1.0545001   -4.3365913   0.13341055    -2.753243 0.00025057396 
 5710000    1.2252861    -4.207127    0.3121994   -2.2101591 -0.00022968191 
 5711000    1.2771844   -3.4115083   0.50096611   -1.1544136 -0.00011510933 
 5712000    1.2195824   -4.0021125    0.4170493   -1.9081374 -0.00038641643 
 5713000   0.84642847   -4.0246881   0.45942175   -2.4014273 -0.00029400679 
 5714000    1.9006206   -3.9015502   0.19823632   -1.0899606 0.00034243637 
 5715000    1.2449728   -4.1538056  0.095989896   -2.3459782 0.00026586424 
 5716000   0.76770829   -3.5925906   0.44876805   -2.0882237 -0.00012536357 
 5717000    1.0096157   -3.8403488   0.30105055   -2.1510767 0.00014126664 
 5718000    1.7092717   -4.1330351   0.50723154   -1.2755551 0.00022530781 
 5719000    1.1896383   -4.2184724   0.55105342   -2.0316663 9.7809724e-05 
 5720000   0.91678033   -4.3240818    0.4859071   -2.5776017 -0.00017499495 
 5721000   0.90205736   -3.9866037   0.24382981   -2.5024451 6.0787612e-05 
 5722000   0.77548721   -3.4758987   0.53526407   -1.8743397 -0.00047823768 
 5723000   0.75075983   -4.0590469   0.30188284   -2.7248693 -1.9290309e-05 
 5724000     1.037953   -3.4850074   0.23548495    -1.822337 -0.0001742821 
 5725000   0.92578693   -4.3500467   0.37042942   -2.7066602 -4.7176064e-05 
 5726000    1.1829632   -3.6908786   0.42485256   -1.6394517 2.3830531e-05 
 5727000    1.1920565   -3.4303083   0.77721121   -1.0140194 -0.000100652 
 5728000   0.79272388   -3.9723936   0.47722258   -2.4051757 -6.3642891e-05 
 5729000    1.0956293   -3.8127294   0.47067642   -1.8355627 -7.9163354e-05 
 5730000     1.003647   -4.2518645   0.84816857   -2.0236813 -0.00022410172 
 5731000    1.0424876   -4.1193074   0.40935079   -2.2765362 0.00020971057 
 5732000   0.64523179   -3.9744304    0.5876696   -2.4995671 0.00012549557 
 5733000    0.9759505   -4.0742058   0.20579822   -2.5264756 0.0001260618 
 5734000    1.0349388   -3.7127115   0.61255042   -1.6771202 -6.9809638e-05 
 5735000    1.4178693   -4.4291529   0.30515156    -2.174431 0.00017475701 
 5736000   0.72997764   -4.2739686   0.53637552   -2.7338738 -0.00043925766 
 5737000    1.1968949   -4.0497511   0.54200284   -1.8620178 -0.00017345198 
 5738000   0.98555797   -3.9906279   0.90170484   -1.7337809 -0.00013786355 
 5739000   0.95650481   -3.7117864   0.46218763   -1.9344047 0.00013223806 
 5740000    1.2322772   -4.0270965   0.63581259   -1.6969027 0.00023958056 
 5741000   0.98252929   -4.3157716   0.36260107   -2.6021928 -7.6469552e-05 
 5742000    1.2038297   -3.7440559   0.25861326   -1.8301767 9.0624074e-05 
 5743000   0.84680505   -4.0447044   0.50128239   -2.3790651 -3.2418267e-05 
 5744000   0.76779824   -3.7421977   0.37610843   -2.3103667 0.00017608339 
 5745000    1.0467234   -4.4692443   0.44383437   -2.5861653 -3.0172292e-05 
 5746000    1.1100572   -3.8695635   0.39421916   -1.9490157 -0.00012211739 
 5747000   0.85735794   -4.3599838   0.53607771    -2.645039 -0.00023172817 
 5748000    1.1087973   -4.1184152   0.74869674   -1.8451222 -3.0325818e-05 
 5749000    1.1178457   -2.8939586   0.32892787   -1.0279929 0.00019566207 
 5750000   0.91340243   -3.7340141   0.48051692   -1.9975689 -0.00011279262 
 5751000   0.86934898   -4.1674961   0.24428447   -2.7278568 -2.4939249e-05 
 5752000    1.0745113    -4.116891    0.3557245   -2.2837134 0.00015672823 
 5753000    1.0341836   -3.8189036   0.49495798   -1.9019432 -0.00018420579 
 5754000   0.80848201   -3.9844957   0.29007884    -2.582754 0.00019147325 
 5755000   0.78110066   -3.6402334   0.62161301    -1.944607 1.6089838e-05 
 5756000    1.4880813   -3.1777939   0.33465258  -0.79702954 0.00011755703 
 5757000   0.90328495    -4.115934   0.67724111   -2.1966761 -0.00022271931 
 5758000   0.69453957   -4.1384237    1.0910584   -2.0923734 -0.00010518127 
 5759000   0.85524515   -4.1026834   0.28391537   -2.6428059 -0.00021551223 
 5760000   0.76409809   -4.0218488   0.44540617   -2.5258078 -0.00031887342 
 5761000   0.86904141   -3.9737143   0.72468101   -2.0541013 -0.00043400093 
 5762000   0.79753156   -4.0845375   0.34133546   -2.6465962 -0.00013489215 
 5763000     1.081593    -4.072994   0.19079907   -2.3950046 -4.7977636e-05 
 5764000   0.84595762   -3.5700464   0.48921661   -1.9176381 -0.00011712055 
 5765000    0.8798251   -4.0882139   0.31828706   -2.5601674  0.000105501 
 5766000    1.3881697   -4.3431507   0.42268528   -2.0117321 -0.00010327627 
 5767000    1.4995162   -3.9604148   0.23534627   -1.6632337 0.00013724632 
 5768000   0.86711961   -4.1731162   0.88282563   -2.0980011 -2.6037707e-05 
 5769000      1.29188   -3.4632381   0.56515796   -1.1217451 2.5350899e-05 
 5770000   0.70673317   -3.8379056   0.86858451    -1.997563 -0.00021629794 
 5771000    1.1388465   -4.5062734   0.55287232   -2.3874871 -0.00024990009 
 5772000    1.0651735   -4.1536794   0.40828737   -2.2807784 -9.851339e-05 
 5773000    1.0408234   -4.0062679   0.56435687   -2.0107788 -0.00015690258 
 5774000    1.2033914   -4.3634523   0.60278706   -2.1060021 -9.0058791e-05 
 5775000   0.51768912   -3.8789422   0.17740136   -2.9897183 -0.00017544084 
 5776000    1.1116476   -4.1733419   0.27846411   -2.3663623 0.00010865247 
 5777000    1.0151806   -4.0946352   0.46813738   -2.2306245 -6.0954016e-05 
 5778000   0.79578338    -3.573142   0.28405692   -2.1948829 0.00013020552 
 5779000   0.82742038   -3.8623925    0.3706658   -2.3540237 0.00011607676 
 5780000    1.0581467   -4.0595663    0.6927719   -1.9118427 -4.7351341e-05 
 5781000   0.96877894   -3.9734395   0.38611239   -2.2552561 0.00021499256 
 5782000    1.4496748    -4.149899    0.3811922   -1.7754039 5.1186923e-05 
 5783000    1.2179662    -3.635084   0.61056866   -1.3498118 -4.4658085e-05 
 5784000    0.8897615   -4.1801644   0.41409388   -2.5426484 0.00029089957 
 5785000    1.7819399   -4.0965511   0.33241253   -1.3139712 0.00042426851 
 5786000   0.72808787    -3.962761   0.61015914    -2.351481 -0.00024494445 
 5787000    1.1499084   -3.7495248    0.6714759   -1.4969248 -0.00026676503 
 5788000   0.99507987   -4.0879939    0.5533588   -2.1664003 9.5541536e-06 
 5789000   0.91870969   -3.4787991    0.4218581   -1.7937152 0.00010513365 
 5790000   0.72145996   -4.1249673   0.24988464   -2.8830752 0.00015148992 
 5791000    1.0615574   -3.7002652   0.30329877   -1.9373251 0.00031567399 
 5792000   0.82604853   -3.7433277   0.33621423   -2.2712968 -7.8978972e-05 
 5793000   0.80227202   -3.9838063   0.44382529    -2.436857 0.00014311164 
 5794000   0.79593867   -4.2937944   0.44596298   -2.7534157 0.00012748113 
 5795000   0.83951345   -4.1857754   0.34246533   -2.6889791 0.00022348817 
 5796000    1.3091932   -4.2778253   0.48810265   -1.9895821  0.000195713 
 5797000    1.3163655    -4.081131   0.41172983   -1.8593986 0.00021898805 
 5798000    1.0608255   -3.9880432    0.2682226   -2.2611856 -0.0001841653 
 5799000    1.2753902   -3.8535997   0.54900144   -1.5509367 -0.00011141092 
 5800000   0.70866827   -3.6400265   0.36283911   -2.3027685 -0.00016662247 
 5801000   0.89500527   -4.3913357   0.29758233   -2.8631212 -0.00010048499 
 5802000    1.0548878   -4.3477558    0.2571009   -2.6401841 -3.0595831e-06 
 5803000    1.2277602   -3.7640558   0.28784712   -1.7880384 -0.00020779747 
 5804000    1.0280833   -3.0371333   0.31674925   -1.3067695 0.00030778195 
 5805000   0.95952484   -4.1546483   0.41424133   -2.4210603 -2.69598e-05 
 5806000     0.690102   -3.8686224    0.1921213   -2.7276108 0.00017449932 
 5807000    1.2122605   -4.3097418   0.37648908   -2.2663946 -5.5232591e-05 
 5808000    1.2745251   -4.0715443   0.29991308   -2.0191592 6.2198153e-05 
 5809000   0.56750297    -4.093519    0.5823207   -2.7308817 6.3361111e-05 
 5810000    1.2289699    -4.010978   0.55060983   -1.7705345 -4.7963514e-05 
 5811000    1.0142047   -4.1210225   0.47033212   -2.2561589 7.5630088e-05 
 5812000   0.68958236    -4.165215   0.40533227    -2.811707 -7.246444e-05 
 5813000    0.7504284   -3.7373483  0.095125791   -2.6103835 0.00036857258 
 5814000    1.2986182   -4.0988029   0.46885391    -1.844349 0.00054206505 
 5815000    1.1925484   -3.5879278   0.54600722   -1.4021665 -0.00012431974 
 5816000   0.76621605   -4.2829736    0.4088488   -2.8205778 -0.00028440759 
 5817000   0.76305573   -3.7829276   0.41217593   -2.3215501 -0.00010700156 
 5818000    1.1491675   -4.2422178   0.28467749    -2.377435 -4.0369536e-05 
 5819000   0.77293204   -3.3790996   0.37353822   -1.9427798 0.00015100646 
 5820000   0.79103593   -4.1609377    1.0088538   -2.0644095 -0.0001957018 
 5821000   0.76804056   -4.2518143   0.52045276   -2.6753058 -0.00026070944 
 5822000    1.0323785   -3.7167497   0.44965578   -1.8475735 6.9707017e-05 
 5823000    1.0263701   -4.1145685   0.37011345   -2.3331962 1.2920775e-05 
 5824000    1.1930933   -4.0861133     0.366407   -2.0792031 -0.00017706777 
 5825000    1.0292933   -3.4734557   0.47635586   -1.5818216 0.00052879552 
 5826000    1.0165316    -3.400337   0.23523255   -1.7673734 -9.3243181e-06 
 5827000    1.6596036   -4.0805702   0.58224105   -1.2163742 3.7750631e-05 
 5828000    1.1112932   -3.3860764   0.36937114   -1.4886771 -0.00015765812 
 5829000    0.9439692   -4.1986086   0.43430842   -2.4663425 -4.0767726e-05 
 5830000   0.83945633   -4.1286014   0.51147503    -2.462874 9.7545729e-05 
 5831000    1.1891829    -3.553254   0.45492864   -1.4631988 8.9907085e-05 
 5832000   0.90714715   -4.0662848   0.27346761   -2.5454899 9.2044752e-05 
 5833000   0.73874851   -4.3506254   0.62159733   -2.7132488 8.2386681e-05 
 5834000    1.1478867    -3.945386    0.5238123   -1.8432295 -3.8663931e-05 
 5835000   0.83710068   -4.3089592   0.73031491   -2.4276308 -0.00019429232 
 5836000   0.69862271   -3.7565273    1.2648007   -1.5311203 -1.4699233e-05 
 5837000    1.1540656   -4.0212606   0.27122971   -2.1631906 9.0470945e-05 
 5838000    1.0380821   -3.6647217    0.3734045   -1.8639543 -0.00012669664 
 5839000    0.9868181   -4.1355467   0.43893208   -2.3397397 0.00016704758 
 5840000   0.87209014   -3.3612275   0.14088311   -2.0212205 0.00046947299 
 5841000   0.71077813   -3.5761786   0.46390643   -2.1349523 0.00031015552 
 5842000     1.255777   -4.0918225   0.39793766   -1.9671915 0.0001857408 
 5843000    1.0790432   -3.7779274   0.54801425   -1.7462287 -0.00014696671 
 5844000    1.2257794   -3.5930407   0.67118719   -1.2364068 -7.8621704e-05 
 5845000    1.0243683   -4.1369382   0.32490213   -2.4035296 -0.00013035405 
 5846000   0.95035053   -3.6314309   0.36862422   -1.9560748 0.00036172174 
 5847000    1.0520282   -4.0272912   0.45691159   -2.1238408 -3.607712e-06 
 5848000   0.86573909   -3.7642594   0.26919397   -2.3046742 0.00031630863 
 5849000    1.0481623   -3.8015953   0.37822282   -1.9821493 -0.00019335545 
 5850000   0.82409534   -4.1853157   0.77958137   -2.2726033 2.539206e-05 
 5851000   0.83289729    -4.221507   0.52673327     -2.54954 -0.00023965722 
 5852000   0.89271525   -4.0595904    0.3730397   -2.4590672 -0.00018225384 
 5853000    1.6024982   -4.1091587    1.0941932  -0.81153048 -0.0002972706 
 5854000   0.87683213   -4.3252087   0.50861838   -2.6109461 0.00010970845 
 5855000    1.0774339   -4.2329406   0.72873609    -2.022733 6.3523557e-05 
 5856000   0.66213333    -3.667846   0.41318891   -2.3442237 -0.00037248359 
 5857000    1.1413428   -4.0316464   0.51877847   -1.9435216 -0.00011757225 
 5858000    1.0552026   -3.8201382   0.40740695   -1.9618278 8.2733212e-05 
 5859000   0.58786954   -3.8229561   0.24589773   -2.7687377 5.0049994e-05 
 5860000    1.0559915   -4.3020346   0.27215816   -2.5778881 0.00014221372 
 5861000    1.3356743   -4.0603979     0.410437   -1.8134087 -0.00013656256 
 5862000   0.70907167   -3.5185236   0.30135778   -2.2421922 -0.00011398522 
 5863000    1.1537464   -3.4592901   0.33288472    -1.540004 -0.00010010708 
 5864000     1.075464   -4.2582338    0.5231555   -2.2563153 -4.5883437e-05 
 5865000   0.96196304   -3.5209973   0.47108624   -1.7272119 0.00045838288 
 5866000     1.028449   -3.7780233   0.17206959   -2.1918363 4.7846894e-05 
 5867000    1.0003355   -3.7983638   0.77153511   -1.6513674 -9.2485998e-05 
 5868000   0.59190534   -3.8588364   0.32057229   -2.7243943 -2.2002732e-05 
 5869000    1.1105164   -3.8836225    0.2116298   -2.1450327 0.00014918526 
 5870000   0.96744469   -3.7889017   0.37712789   -2.0815374 1.7426157e-05 
 5871000   0.53644461   -3.4814544   0.45476734   -2.2890757 -0.00012595392 
 5872000   0.94799596   -3.7599458   0.23594861   -2.2205028 0.00040287469 
 5873000    1.3823961   -4.0293943   0.93048325   -1.1981164 -0.00038455783 
 5874000   0.73487939   -3.7254304   0.97107538   -1.7438958 -8.5509563e-05 
 5875000   0.81814804   -3.9983056   0.60278966   -2.2705624 -6.990109e-06 
 5876000    1.1934747    -4.369953   0.48665238   -2.2422729 -4.806896e-05 
 5877000    1.1436105   -4.4288969   0.26144498   -2.5949875 0.00030450965 
 5878000    1.0814161   -3.8178607   0.41272265   -1.9181908 3.7492509e-07 
 5879000   0.73796615   -4.0009709   0.52010082   -2.4661666 -0.00019899089 
 5880000   0.97544895   -3.3549514   0.30245016   -1.7112589 0.0001533923 
 5881000   0.86953083   -3.9556339   0.26157441   -2.4984546 0.00050358207 
 5882000    1.0942194   -3.6204636   0.32011473   -1.7957972 -9.9961177e-05 
 5883000    1.0701014   -4.4233725   0.23568871   -2.7162944 -3.1940223e-05 
 5884000    1.1992634   -4.0850286   0.71795736    -1.718084 -3.4335976e-05 
 5885000    1.0459221   -4.0870257   0.42574237   -2.2231404 0.00013214237 
 5886000    1.2298156   -3.5496576    0.3664171    -1.492244 1.3310734e-05 
 5887000     0.974134   -3.6734264   0.30871532   -2.0252768 -6.7725735e-06 
 5888000    1.1343066   -4.2065619   0.32755423   -2.3193361 0.00026299649 
 5889000    1.1938728   -4.0932821   0.52150307    -1.930204 -0.00024712547 
 5890000    1.3168774   -3.9790924   0.47230033   -1.6960856 1.234433e-06 
 5891000   0.78919252   -3.8642295   0.42333897   -2.3557508 -0.00020850649 
 5892000   0.86982573   -2.9347946   0.72280959   -1.0159747 0.00014252489 
 5893000   0.96689061   -3.6497039     0.424563   -1.8956663 0.00024706551 
 5894000    1.2693882    -3.680435    0.2608892    -1.674137 3.1565446e-05 
 5895000   0.89622263   -4.1137639   0.60368363   -2.2777742 -0.00024051512 
 5896000    1.0581481   -3.5699187   0.65986632   -1.4550988 0.00027209925 
 5897000   0.62759642   -4.1565412   0.39317244   -2.9004237 6.9728929e-05 
 5898000    1.6278686   -4.2736985   0.92347623   -1.1119029 -9.041493e-05 
 5899000   0.93180933   -3.8310758   0.40592464   -2.1439133 -2.0605954e-05 
 5900000   0.99390684   -4.0697809   0.63939412   -2.0637649 2.3968482e-05 
 5901000   0.83996847   -4.1870393   0.42868944   -2.6033932 -0.00021714938 
 5902000    1.0179304   -3.8099401    0.8281497   -1.5821362 -0.00017347998 
 5903000   0.65294416   -4.3103403   0.50660753   -2.9059345 -0.00019996109 
 5904000   0.99018328   -3.9303114   0.55535741    -2.013452 0.00023430022 
 5905000    1.2721625   -3.8674427   0.55061078   -1.5676086 0.00016935299 
 5906000    1.0361703   -4.0639466   0.51727673   -2.1219357 -6.2296332e-07 
 5907000   0.88757035    -3.838418   0.22446364   -2.3935451 8.1010765e-06 
 5908000   0.84608689    -3.361087   0.41729078   -1.7804267 0.00031150176 
 5909000   0.58176682   -3.6689504   0.48013587   -2.3888851 -0.00031673359 
 5910000   0.64782566   -4.0109629   0.31963666   -2.8005659 -4.8209284e-05 
 5911000   0.92544398   -3.3942899   0.22035126   -1.9014531 -9.3967317e-05 
 5912000   0.61220304    -3.860214   0.52623776   -2.4921971 -0.00028364159 
 5913000    1.4850503   -3.8515272   0.44585348   -1.3637295 -5.7636134e-05 
 5914000   0.65112773   -4.0708499    1.2080162   -1.9675331 -0.00066172835 
 5915000    1.2792466   -4.3139621   0.97176988   -1.5832281 -0.00013394799 
 5916000   0.95221766   -3.8344904   0.37479155   -2.1503995 8.4173393e-05 
 5917000    1.4599957   -3.8925868   0.31521071    -1.569882 -0.00017527808 
 5918000     1.872397   -3.6457147   0.42321132  -0.64795749 -0.00025934449 
 5919000   0.70958159   -3.8395796    1.1770176   -1.6868873 -0.00021380394 
 5920000    1.3433701   -3.3794662   0.64103664  -0.89129565 7.666725e-06 
 5921000   0.82447103    -3.890993   0.53600507   -2.2213403 -2.700236e-05 
 5922000   0.86570177   -4.1452927   0.30803367   -2.6469191 -3.5791727e-05 
 5923000     1.457479   -3.2113435    0.5132996  -0.69401027 0.00017613315 
 5924000    1.2994526   -4.1576694   0.56647958   -1.8044425 -0.00030679711 
 5925000   0.65704939   -3.5031722   0.50329794   -2.0964313 -0.00025816042 
 5926000   0.55589621   -4.0449456   0.38789733   -2.8926909 0.00047868183 
 5927000   0.64190866   -4.0481559    1.3769864   -1.7885451 -0.00021021177 
 5928000   0.83280971   -4.1823257   0.38933455   -2.6478778 -0.00018535418 
 5929000    1.1065497    -3.398085   0.19838087   -1.6781982 0.00054826066 
 5930000   0.83234885   -4.2881681    1.0601826   -2.0835059 -0.00046846315 
 5931000    1.5528301   -4.2165626   0.52393033    -1.557491 -0.00044976248 
 5932000   0.99862146    -4.413342   0.44500325   -2.5952342 -7.5598974e-05 
 5933000    1.2404332   -3.7903169   0.40663989   -1.6780814 0.0001660043 
 5934000    1.0695499   -3.7378755   0.96680487   -1.3004396 -0.00033541366 
 5935000    1.1927776   -4.1322572   0.49215019   -2.0000378 1.3228833e-05 
 5936000    0.7311533    -3.532879   0.43876193   -2.0887813 0.00015340223 
 5937000    1.1625492   -3.6702729   0.36009244   -1.7116753 0.00031121928 
 5938000   0.84916131   -3.9839564   0.62287161    -2.193488 2.6802852e-05 
 5939000   0.96798246   -3.8496481   0.42233699   -2.0963352 0.0002291553 
 5940000    1.2106509   -3.8588835   0.78926406   -1.4049745 0.00014252565 
 5941000    1.2549902   -3.9673548    0.2538213   -1.9879219 9.4028709e-05 
 5942000   0.99447551   -4.1761528   0.65600469   -2.1527443 -2.5067921e-05 
 5943000   0.86149399   -4.0367319    0.7258502   -2.1263274 -0.00030203779 
 5944000   0.98464035   -4.2178798   0.50802645   -2.3559729 1.0222724e-05 
 5945000    1.1979552    -3.914888   0.71701688   -1.5506828 -0.00012922297 
 5946000   0.98539939   -3.3760853   0.28287171   -1.7382894 0.00011399271 
 5947000   0.83883947   -3.9830018   0.43496789   -2.3946297 -7.1932983e-05 
 5948000    1.1974674     -4.05567   0.96398878   -1.4451634 -0.00022580569 
 5949000   0.82959755   -3.8299332   0.66389182   -2.0253447 -0.00012962602 
 5950000   0.55831896   -3.9056572   0.40594707   -2.7320216 -7.9915538e-05 
 5951000    1.1894353    -3.993683   0.30777172   -2.0504378 1.5132006e-05 
 5952000    1.1784209    -3.887618    1.1640474   -1.1032418 -0.00026551289 
 5953000   0.89745172   -4.0171507   0.65434813   -2.1288065 0.00031666786 
 5954000     1.486069   -4.3615742   0.76788925   -1.5503401 -0.00030674406 
 5955000    0.8903431   -3.5621193   0.54198567   -1.7959118 3.894348e-05 
 5956000    1.2159971   -4.1490603   0.82221846   -1.6548459 -6.4152475e-05 
 5957000   0.99005515   -4.4585977   0.30649761   -2.7907742 4.7850689e-05 
 5958000   0.92256249   -4.2060959   0.58444562   -2.3531269 -0.00016237464 
 5959000    1.2968271   -3.8441091   0.79497192   -1.2659999 -5.2837001e-05 
 5960000   0.95606706    -3.941176   0.46880279    -2.157781 -0.00011786151 
 5961000    0.9354561   -3.4179689   0.51641512   -1.6153017 0.0001366424 
 5962000   0.99678603   -4.3414853   0.47149871   -2.4994058 -0.00012062062 
 5963000   0.92128546   -4.1531556   0.37681328   -2.5095748 0.00030269048 
 5964000   0.81851357   -4.1851529   0.57681676   -2.4828799 -0.00026305278 
 5965000    2.0087084   -3.6864553   0.38839314  -0.53608817 0.00039469916 
 5966000   0.68683655   -3.3244212   0.40341036   -1.9766105 6.7325347e-06 
 5967000   0.75675388    -3.882015   0.48336552   -2.3581129 1.4391132e-05 
 5968000     1.298837   -3.9850687   0.70598177    -1.493186 -9.2106721e-05 
 5969000    1.1810169   -3.6477225   0.50492869   -1.5188955 -0.00021184923 
 5970000    1.0565459   -3.9273074   0.57226379   -1.9022929 -0.00042754277 
 5971000    1.5663856   -4.0091997   0.41049641   -1.4449232 -9.8981319e-05 
 5972000   0.89397453   -4.0951495    1.1772922   -1.6886423 -0.00042012675 
 5973000   0.97922031   -3.9922415   0.41996186   -2.2258517 -0.00018619332 
 5974000     1.280912   -3.1246701   0.23812994   -1.1252861 0.00012761181 
 5975000   0.58015821   -4.0308465   0.93614504   -2.2969839 2.7307521e-05 
 5976000    1.4344506    -3.554365    0.2035641   -1.3784314 0.00060826158 
 5977000   0.56541908   -3.5907332   0.36642872   -2.4468533 -0.00010805911 
 5978000    0.8816338   -3.5991058   0.55439981   -1.8324596 -0.0001001172 
 5979000    1.0153097   -4.1504203    0.4824375   -2.2719319 -0.00020340872 
 5980000   0.69858563   -4.0824765   0.65356457   -2.4683567 0.00021463218 
 5981000    0.6776755   -3.8052554   0.75194659    -2.121505 0.00031023807 
 5982000   0.82680677   -3.9843448   0.60420927   -2.2432762 -0.00016433564 
 5983000    1.4301471   -4.0616655   0.51373131   -1.5814819 0.0002328643 
 5984000   0.86001459   -4.1305342   0.56338777   -2.3846263 -0.00025991698 
 5985000    1.2094042   -3.5427903   0.69920939   -1.1806501 -1.7415267e-05 
 5986000   0.95461024   -3.7175491   0.28656954   -2.1183905 0.00021260673 
 5987000   0.72229402   -3.9945433   0.50476402    -2.496625 -0.00022936496 
 5988000    1.1202472   -4.0241018   0.90178634   -1.5819756 4.5667802e-05 
 5989000   0.95340368   -4.2496362   0.20746911   -2.7312371 -0.00023585262 
 5990000    1.6091392   -4.5008803   0.86021267   -1.4281012 -0.00031228753 
 5991000   0.97716578   -4.0519824   0.35079468   -2.3575847 0.00037975943 
 5992000    1.2846595   -3.8089703   0.19446197   -1.8481015 7.0429262e-05 
 5993000   0.63128603   -4.2351248   0.42441922   -2.9426873 -2.2067466e-05 
 5994000   0.64017295   -4.0304568    0.7065545   -2.4436645 -0.00022792258 
 5995000   0.78407971   -3.6998035    0.4947302   -2.1269637 0.0001599227 
 5996000   0.79918987    -3.625184   0.32655235   -2.1997456 -3.9839376e-05 
 5997000   0.96604785   -3.7463388   0.39536627   -2.0226567 -0.00016854401 
 5998000    1.6845853   -3.7228954   0.26838854   -1.1382021 8.1555787e-05 
 5999000   0.89831429   -4.1407945   0.45892575   -2.4466866 -0.0002362182 
 6000000   0.77612639   -3.4979243    0.4676754   -1.9630751 2.255499e-05 
 6001000   0.83787623   -3.5055414   0.44787825   -1.9055834 0.00038439759 
 6002000      1.43138   -4.1091476   0.50395157   -1.6370485 -0.00038600153 
 6003000   0.96639578   -3.7019803   0.17367182   -2.1995143 -0.00015377428 
 6004000   0.61798753   -3.8388514     0.415299   -2.5738196 4.7685477e-05 
 6005000    1.0452008    -3.865456   0.43311398    -1.995191 -0.00033608978 
 6006000    1.0765577   -3.4354953     0.340206   -1.6150225 9.0329692e-05 
 6007000   0.77063095   -4.1760909   0.22223371   -2.8942396 -4.1493376e-06 
 6008000   0.80188897   -4.0307425   0.45936018    -2.468785 0.00021872836 
 6009000    1.1111128   -3.6468412   0.60064859   -1.5184124 0.00011187098 
 6010000    1.2963141   -3.7483858   0.48367335   -1.4822806 8.050634e-05 
 6011000   0.63415525   -3.6755153   0.69009436   -2.1134574 0.00010968066 
 6012000   0.88694215   -4.1055098   0.46772259   -2.4182418 -3.6948095e-05 
 6013000    1.0381131   -3.4986151    0.2683868   -1.8028228 0.00021421659 
 6014000   0.93048758   -4.3520828   0.45768981   -2.6149726 -3.3512194e-05 
 6015000    1.0337399   -3.7420157   0.42970552   -1.8909179 0.00023157456 
 6016000   0.77686853   -4.3268246   0.10017174   -3.1584586 4.8341539e-05 
 6017000   0.96716341   -3.1803072   0.40318503   -1.4472725 -2.7088267e-05 
 6018000    1.1863746    -4.020535    0.4975344   -1.8917355 2.6375176e-05 
 6019000   0.77780458   -4.2436415   0.40018786   -2.7739724 -0.00026335478 
 6020000    1.0638663   -4.0607373   0.52484424   -2.0730769 -7.9413653e-05 
 6021000   0.84395442   -4.0446615   0.36017486   -2.5240493 8.7332707e-05 
 6022000   0.67091885   -4.0392369     0.667381   -2.4493424 -0.00043616702 
 6023000    1.0835584   -3.9570185   0.36645667    -2.100669 9.5249318e-05 
 6024000   0.82276363   -4.2212542    1.0775658   -2.0123884 -0.00011118718 
 6025000   0.87716181   -4.3426454    0.3509135   -2.7856345 -0.0001296102 
 6026000   0.68989329   -3.7051653   0.63554994   -2.1210121 -4.9923036e-05 
 6027000   0.89141154   -3.7531309   0.44115057   -2.0862895 2.184485e-05 
 6028000    1.3139141    -3.528868   0.26843063   -1.4538055 -0.000205432 
 6029000    1.1360508   -4.4389448   0.55056885   -2.3263061 4.665297e-05 
 6030000   0.83534359   -3.9112164    0.8479322   -1.9146868 -0.00035059011 
 6031000    1.2369712   -3.8882926   0.41339304   -1.7740642 -6.8891071e-05 
 6032000     1.043942   -3.7324744   0.28531657   -2.0117376 -4.9082415e-05 
 6033000   0.74697864   -4.3304803   0.26091029   -3.0424744 -1.0769268e-05 
 6034000   0.89661309   -4.2814734   0.65732352   -2.3913069 7.800395e-05 
 6035000     1.030347    -4.059124    0.1236938   -2.5187032 -7.8617222e-05 
 6036000   0.93428352   -3.7071031   0.51806043   -1.9044028 0.00041297957 
 6037000    1.2305568    -2.574154   0.39266009  -0.48947834 0.00058417917 
 6038000    1.0846553   -3.9907878   0.60848832   -1.8908984 0.00016663399 
 6039000   0.77619292   -3.6887292   0.40549925   -2.2159647 0.00043009517 
 6040000    1.2470717   -3.6377961   0.34209557    -1.580977 0.00017424235 
 6041000   0.78829793    -3.986835   0.44855231   -2.4543731 -2.7991851e-05 
 6042000     1.395367   -4.0646332   0.67865877   -1.4673448 5.2343028e-05 
 6043000     1.497156   -4.0544612   0.26416479   -1.7317069 0.00052180362 
 6044000   0.90038936   -3.6327608   0.56405711   -1.8306683 0.00034512607 
 6045000    1.1465168   -4.1749736   0.96884815   -1.6296648 -1.1289458e-05 
 6046000   0.84916312    -4.038129   0.55431513   -2.3162145 2.1755065e-05 
 6047000   0.76306811   -4.0559215   0.17233872   -2.8343641 0.00012890721 
 6048000   0.77179327   -3.9060807   0.29621728   -2.5486477 0.00020780384 
 6049000   0.97936895   -3.9906597   0.73815751   -1.9058699 -0.00012393954 
 6050000    1.5928468   -4.0810316   0.66886962   -1.2219976 0.00030583721 
 6051000    1.2097199   -3.6162473   0.77986969   -1.1730127 -0.00040581273 
 6052000    0.7181435   -4.0124192   0.60645703   -2.4185149 9.2816276e-05 
 6053000    1.2580243   -4.1769782   0.48153988    -1.965655 -6.8076231e-06 
 6054000    1.0132848   -3.7371789   0.43400786   -1.9099044  8.69265e-05 
 6055000   0.88465349   -3.7129955    0.2038076   -2.2927894 0.00039682271 
 6056000    1.3017868   -3.0558548   0.59731213   -0.6685858 0.00056188053 
 6057000    1.2357536   -3.9322028   0.59828262    -1.634759 -9.0255808e-05 
 6058000    1.1359506   -4.2218415   0.19653516   -2.4633744 0.00045212015 
 6059000   0.57480859   -3.8797873    0.5795173   -2.5099082 -0.00020181082 
 6060000   0.80947619   -3.6014453   0.28747453    -2.200941 -0.00019512392 
 6061000   0.62079578   -4.2196295   0.83180713   -2.5342282 -0.0001433712 
 6062000    1.2192976   -3.8287206   0.15900064   -1.9931858 0.00029340935 
 6063000    1.5027378   -4.1193573   0.56346989   -1.4896229 3.1745209e-05 
 6064000   0.73587716   -4.2565155   0.45732098   -2.7873634 8.4753265e-05 
 6065000   0.83391441   -4.1034839   0.39338377   -2.5634678 -8.6429076e-05 
 6066000    1.1526982   -3.8961356   0.46256507   -1.8486105 -0.00034837686 
 6067000    1.2362061   -3.9500514    0.6750417   -1.5752264 -0.00015530019 
 6068000     1.351961   -3.6911407   0.43600961   -1.3961846 -0.00029335827 
 6069000   0.72688432    -3.857962    0.3478129   -2.5106832 0.00024677546 
 6070000    1.4166928   -2.5426763    0.3255755  -0.26914819 -0.00015577282 
 6071000    1.4021838   -3.8273204   0.56050187   -1.3388157 0.00015679786 
 6072000    0.9504057    -4.271627   0.92026463   -2.0445545 -8.8997683e-05 
 6073000    0.8976743   -3.8418361   0.34143203   -2.2661019 5.7476155e-06 
 6074000    1.0565585     -3.27332   0.35666799   -1.4638841 0.00054977444 
 6075000   0.84010597   -4.1034465   0.66559579    -2.282705 -0.00014108664 
 6076000    1.1429186   -3.6366245   0.53940109   -1.5257103 0.00024389637 
 6077000   0.95078813   -3.7684598   0.16864987   -2.2924762 -0.00040545322 
 6078000    1.3603452   -3.6347874   0.30635746   -1.4579552 -0.00023768073 
 6079000    1.0788321   -3.4093761   0.33102753   -1.5949544 0.00026481232 
 6080000    1.2244348    -4.055365   0.49338842   -1.8783787 9.6377261e-05 
 6081000     1.081248   -3.9436056    0.9614142   -1.4954753 -0.00027888199 
 6082000   0.97002434     -4.00733   0.56662479   -2.1069218 2.3807563e-05 
 6083000   0.74305262   -3.4667441    0.2751616   -2.1698851 0.00014766652 
 6084000   0.97621481   -3.6485698   0.65066676   -1.6556077 0.00014064889 
 6085000    1.3566405   -4.0144561   0.45668208   -1.6923933 8.584869e-05 
 6086000   0.87256933   -4.4165546   0.78372898   -2.4330428 -0.00029100025 
 6087000   0.98872703   -4.2267533   0.46405468    -2.403199 -2.4192231e-05 
 6088000   0.87567681   -4.0598818   0.43248052   -2.4233456 2.8154136e-05 
 6089000   0.66276917   -3.5183707   0.57643124   -2.0306318 -0.00013576461 
 6090000    1.0503248   -4.2999628   0.67267749   -2.1830888 -0.00030343303 
 6091000   0.81924005   -4.2070269   0.97124859   -2.1093232 -0.00017091025 
 6092000   0.92517823   -4.2567068   0.37520901   -2.6093778 1.6601491e-05 
 6093000    1.2551631   -3.8695583   0.51842077   -1.6252882 -0.00013602657 
 6094000   0.78384391   -3.3658276   0.45623169   -1.8318106 -0.00010533237 
 6095000   0.94742138   -3.6898102   0.31011534   -2.0769905 0.00016538981 
 6096000    1.2538536   -4.1062169   0.33744774   -2.0447204 6.3395489e-05 
 6097000    1.1965349    -4.356005     0.905038   -1.8057316 -0.00050170866 
 6098000    1.0270153   -3.9566379   0.23852514   -2.3059667 -2.7329331e-05 
 6099000   0.77329857   -3.7332484   0.49052545   -2.1794374 6.3185533e-05 
 6100000   0.86101623   -3.7496869    0.5510078   -2.0147818 0.00019077066 
 6101000   0.73345406   -3.3047107    0.8545627   -1.4416487 -0.00029339639 
 6102000   0.91187704   -3.4852112   0.19749441   -2.0338859 0.00021750154 
 6103000   0.98336513   -3.7933765   0.65616086   -1.7850886 -0.00020585082 
 6104000    1.3062122   -3.8382496   0.91084435   -1.1313635 0.00023112828 
 6105000   0.67663457   -3.6714346   0.35170331   -2.3893587 0.00025885193 
 6106000   0.72751622   -3.7679944   0.81787055    -1.949789 -0.0003007333 
 6107000    1.2983338   -4.1191616   0.38291491   -1.9510377 7.0767971e-05 
 6108000    1.5052974   -3.8341657   0.87613942   -0.8882423 -0.00021192107 
 6109000    1.1207855     -3.18005   0.64221638  -0.99675361 7.8271222e-05 
 6110000   0.67097566   -3.9739798   0.67585363   -2.3755346 0.00024284625 
 6111000    0.8426174   -3.9313594   0.59661977   -2.1761407 0.00010568498 
 6112000    1.3238506   -4.0172163   0.48558372    -1.711338 -6.3191909e-05 
 6113000   0.99451368   -3.6882246   0.66058154   -1.6601868 -0.00019562701 
 6114000     1.123843   -3.9694811   0.99461519   -1.4295818 -0.00041982473 
 6115000    1.2683926   -3.5856812   0.37814443    -1.463497 -8.5104842e-05 
 6116000    1.0413961   -3.9010637   0.57089558   -1.8982485 -0.00017203177 
 6117000    1.1307428   -3.4813601   0.36349074   -1.5630979 0.00034634573 
 6118000    0.7699712   -3.7321322    0.5298286   -2.1435932 -0.00034546461 
 6119000    1.0059841   -3.3882162   0.47910943   -1.5258786 0.00025689165 
 6120000    0.9934384   -3.6110468   0.41826209   -1.8268069 -1.8468238e-05 
 6121000   0.53321407   -3.8399023   0.40846184   -2.6982711 -0.00021650679 
 6122000    1.2703542   -3.6503449   0.69856767   -1.2050402 -0.00055054107 
 6123000   0.95772938   -3.0569556    0.9007529  -0.83932478 -1.9511788e-05 
 6124000    0.6578182   -4.0104373   0.32389706   -2.7820402 0.0001895602 
 6125000    1.2233321   -4.0717432   0.58810125   -1.8015603 0.0003088852 
 6126000   0.66174407   -4.1732392   0.39225072   -2.8710904 0.00027173434 
 6127000   0.86027816   -3.8546428   0.35885098   -2.3129093 -0.00027129205 
 6128000    1.9300032    -4.098317   0.62142778   -0.8231348 8.9616104e-05 
 6129000   0.77091919   -4.0771545   0.37153132   -2.6456093 3.1576203e-05 
 6130000    1.2245987   -4.1414799   0.50285931   -1.9547974 0.00022420038 
 6131000    1.0138875   -3.2392235   0.68248948   -1.1626388 0.00025578985 
 6132000    1.3353415   -3.9319757   0.54264808   -1.5532331 4.0776843e-05 
 6133000     0.644597   -4.0461605   0.50689833   -2.6529413 -0.00018510741 
 6134000   0.87386522   -3.9727822   0.35784732   -2.4133702 0.00020185743 
 6135000   0.81420534   -3.4629967   0.24099067   -2.1024737 0.00058477659 
 6136000   0.90730027   -4.0252743    0.1838748   -2.5938617 0.00016686619 
 6137000   0.77139264   -4.1054936    0.5581837   -2.4866451 -0.00030741238 
 6138000   0.97482534   -4.2350731    1.0002207   -1.8944676 -0.00017542099 
 6139000    1.0172295   -4.0635476    0.4586544   -2.2062026 -9.1466616e-05 
 6140000   0.99173382   -3.5976745   0.86739723   -1.3666433 -0.00013108771 
 6141000   0.72310331   -3.7417672   0.65342338   -2.0940767 -9.1646835e-05 
 6142000   0.94574892   -3.5578304   0.54485487   -1.7125708 9.0449608e-05 
 6143000    1.2589943   -3.6602955   0.11723835     -1.81194 0.00040598971 
 6144000   0.60083884   -3.8366183   0.47237738   -2.5380875 -0.00038771611 
 6145000   0.49100832   -3.7499609   0.27792763   -2.7968969 0.00017814221 
 6146000    1.2669034   -4.5197713   0.76173077   -2.0160484 -7.6879001e-05 
 6147000    1.3760741   -3.8639744   0.28746888   -1.6844035 -0.0002534993 
 6148000   0.59798732   -4.0958231   0.48030788   -2.7932826 -0.00021633889 
 6149000   0.86357179   -3.5423676    0.2307718   -2.1241846 -0.00011169907 
 6150000   0.88869022   -3.6117511    0.3292425   -2.0605595 -0.000311902 
 6151000    1.0543556     -3.92856   0.43233091   -2.0464901 0.00026801447 
 6152000   0.93867101   -3.8715595   0.35882957   -2.2220573 0.00010091242 
 6153000    1.0874223   -3.8535442   0.61542756   -1.7429111 -7.5075643e-05 
 6154000    1.5693262    -4.358914   0.80903681   -1.3920536 -0.00025933647 
 6155000   0.66886956   -3.9093115   0.14159935   -2.8480165 0.00025759019 
 6156000    1.1242727   -4.0413795   0.66106368   -1.8344409 -0.00016235846 
 6157000   0.66279977   -4.1827193   0.53648704   -2.7348826 0.00027040088 
 6158000    1.2616239    -3.966703   0.52550206   -1.7064681 0.00014070818 
 6159000     1.304801   -3.6051845   0.46236474   -1.3487185 -7.806231e-05 
 6160000   0.86839576   -3.9029757    1.1367005    -1.572231 0.00020841834 
 6161000   0.83411183   -4.3443085   0.42126544   -2.7761393 0.00022063403 
 6162000    0.7881892   -4.1077549    0.3590995   -2.6648952 -0.00032682222 
 6163000      0.60487    -3.650554   0.83920431   -1.9796534 -1.6313436e-05 
 6164000   0.85041526   -4.0327574   0.43439445    -2.429042 0.00020924352 
 6165000    1.2355496   -3.4860699   0.55295188   -1.2342373 0.00016946315 
 6166000     1.047662   -4.1244643   0.56705167   -2.1168774 2.3968148e-05 
 6167000   0.68366736   -3.8927236   0.79301802    -2.159663 -0.00047076178 
 6168000   0.84099875   -3.9776463   0.40165462   -2.4196184 -0.00021335445 
 6169000     1.083141   -2.9774123   0.37328826   -1.1148051 -0.00012960134 
 6170000    1.0803317   -3.4831321   0.53550455   -1.4621715 1.044328e-05 
 6171000    1.0467684    -3.848569   0.47484713   -1.9344154 3.4535678e-05 
 6172000    1.6803351   -3.8561388    1.1361028  -0.40957525 -2.9672598e-05 
 6173000    1.2676847   -4.1122973   0.62707724   -1.7421537 0.00029956216 
 6174000   0.82748228   -4.1114998   0.45834472   -2.5153669 -0.00017538175 
 6175000   0.82939947   -3.9519655    0.8597162   -1.9518251 -0.00010229125 
 6176000    1.1869306   -4.2861022    0.4659968   -2.1880758 -0.00029224385 
 6177000   0.54199253   -3.6027719   0.25985833   -2.5976739 0.00015834449 
 6178000    1.0599809   -4.0450071   0.50740593   -2.0801274 -0.00039781697 
 6179000   0.85570657   -3.8483935   0.96494331   -1.7068536 -0.00010476106 
 6180000   0.70437884   -3.8717821   0.26450139   -2.6387598 0.00024372674 
 6181000   0.66341938   -3.7167439    0.4030906   -2.4014517 0.0003151999 
 6182000    1.0631487   -3.9468821    0.2459087   -2.2391439 0.00033004928 
 6183000    1.2120577   -3.8209409   0.96059202   -1.1937696 -0.00018319408 
 6184000   0.92585667   -3.3886338   0.26017672   -1.8554042 0.00036919452 
 6185000    1.1122203   -3.8701106   0.19361868    -2.147189 1.2547713e-05 
 6186000   0.94941348   -4.0091012   0.30869414   -2.3949636 4.5371281e-05 
 6187000    1.0043821   -3.7134678   0.48181432   -1.8506281 -0.00013188766 
 6188000    1.0502543   -3.7927148      0.22022   -2.1283951 0.00034999832 
 6189000    1.1661895   -3.8802645   0.31002313   -1.9667308 0.00026535825 
 6190000    1.0663511   -3.4444773   0.60172173   -1.3765228 -4.8585326e-05 
 6191000    1.1328005   -3.9633418   0.44797224   -1.9577688 0.00026069647 
 6192000   0.87133647     -3.84133   0.76247799   -1.8807644 -0.00030218843 
 6193000    1.0127351   -4.2094476    0.2012495   -2.6156874 9.3516358e-05 
 6194000    1.2276242   -3.7230697   0.18613514   -1.8489513 0.00017020725 
 6195000   0.90826672   -4.2352918   0.87863544   -2.1077896 -0.0001007882 
 6196000     0.774167   -2.8519651   0.70834248    -1.079143 -0.00014417725 
 6197000    1.1756933   -3.8429755   0.20245125   -2.0239459 0.00012072107 
 6198000    1.2796381   -4.2920794   0.65060941   -1.8819676 7.2057626e-05 
 6199000    1.0300475   -3.0765202   0.40431619   -1.2558887 0.00019041613 
 6200000    1.1460366   -4.2491159   0.50175692   -2.1715587 -0.00023637441 
 6201000   0.80091449   -3.7806696   0.80787651   -1.8715356 -0.0003005399 
 6202000    1.0274866   -3.4097951   0.59944388   -1.3975571  0.000283574 
 6203000    1.0906821    -3.861584    0.5275829   -1.8343132 0.00041484635 
 6204000    1.0790549   -4.0356354   0.63306257   -1.9188723 -0.00035462251 
 6205000    1.1475867   -3.9912335   0.16073744   -2.2525644 0.00038700037 
 6206000   0.95927036   -3.8834704   0.35568805   -2.2087856 -0.00024722629 
 6207000    1.1243819   -4.1493308   0.39888002   -2.2044257 0.00046166723 
 6208000    1.1834483   -3.1279674   0.28457476   -1.2161512 -0.00024763608 
 6209000   0.88445297   -4.2668042   0.79170295   -2.2589784 0.00010552522 
 6210000   0.97832083   -3.8802282   0.66285037   -1.8721867 -0.00014120526 
 6211000   0.85014955   -4.4812745   0.53887791    -2.773441 -8.0545785e-05 
 6212000   0.87911568    -4.041492   0.52643696    -2.306271 -0.00013311876 
 6213000    1.2523368   -4.2972558   0.89075945   -1.6845332 0.00012366627 
 6214000    1.0064168   -3.7109076   0.63753415   -1.6895503 -0.00010873436 
 6215000   0.74105071   -4.0467975   0.57733103   -2.4505217 4.4966123e-05 
 6216000   0.71842782   -3.7524207   0.60955866   -2.1550238 -0.000248157 
 6217000     1.061328   -4.1539346   0.22242789   -2.4721807 0.00014916681 
 6218000   0.96872684   -3.8084345   0.37733477   -2.0991004 6.6891819e-05 
 6219000    1.5670023   -4.1658356   0.51583702   -1.4953705 4.1287752e-06 
 6220000   0.63170155   -3.6577017   0.24039148   -2.5487205 2.3169114e-05 
 6221000    0.9427623   -3.8731157   0.67704093   -1.8997766 8.3020145e-07 
 6222000   0.83761334   -4.0324962   0.58751889    -2.293259 7.192725e-05 
 6223000    1.2199063   -3.9638871   0.63818562   -1.6483303 -1.4063794e-05 
 6224000   0.98714698   -4.1098174   0.34056536    -2.411925 0.00016086616 
 6225000   0.88453131   -3.9528045   0.79665929   -1.9399147 -0.00027850789 
 6226000   0.67556228   -4.0818384   0.40793625    -2.745004 -0.00029813581 
 6227000    1.2016761   -3.8869649   0.35938657   -1.8752737 -6.0576435e-05 
 6228000    1.0597953   -3.6363924   0.35967266   -1.8195013 0.00034242529 
 6229000   0.81715197   -4.1212998   0.42506942   -2.5726464 4.1768858e-05 
 6230000   0.92493765   -3.8714684   0.44269767   -2.1569815 0.00029282196 
 6231000   0.92297023   -3.6061328   0.24628023   -2.0907685 -0.0001069452 
 6232000    1.0202911   -3.6003895   0.36389714    -1.833592 -8.362923e-05 
 6233000   0.95579507   -3.8941664   0.71782341   -1.8621248 -0.00038201187 
 6234000   0.80660004   -3.8163654   0.49622335    -2.211067 0.00025220722 
 6235000    1.0051579   -3.5854576   0.55614318   -1.6472223 1.9256908e-05 
 6236000    1.1711352   -4.3331764    1.1495378   -1.5733277 -0.00073449936 
 6237000    0.6540704   -3.9639741   0.42637746   -2.6382499 -0.0002754821 
 6238000    1.3076234   -3.7601395   0.38865922   -1.5734982 0.00018195388 
 6239000    1.1963351   -3.5339707   0.44044339   -1.4485666 -7.7991715e-05 
 6240000    1.0007452   -3.4045732   0.54943588   -1.4791127 0.00013633147 
 6241000   0.98723081   -3.6495271   0.85627321   -1.4358115 0.00025247399 
 6242000    1.1348995   -4.2197754   0.40909016   -2.2501984 0.00023349123 
 6243000   0.51324119   -3.9279443   0.35528723   -2.8669505 0.00022750088 
 6244000    1.1466129   -4.0359155   0.41913755   -2.0401852 0.00021451926 
 6245000   0.68774342   -4.2175757   0.55789348    -2.714035 -8.5377666e-06 
 6246000     0.910595   -3.8869214   0.86596922    -1.768884 -0.00032884114 
 6247000   0.72704388   -3.4773976    1.0754434   -1.4022689 3.3949789e-05 
 6248000    1.0672793   -3.8782445   0.25663249    -2.154103 0.00033582618 
 6249000    1.3240064   -3.9158915   0.38519272     -1.71019 -0.00021623605 
 6250000    0.7032597   -4.0873524   0.35539761   -2.7649727 0.00010619665 
 6251000    1.0347018   -4.1763696    0.5083756   -2.2452789 -2.8705482e-06 
 6252000   0.84709414   -3.7309479   0.41619701   -2.1499964 -0.0002214736 
 6253000   0.94322043   -4.0797913   0.20925767   -2.5736055 0.00010526463 
 6254000    1.3105153   -4.2543737    0.8871733   -1.5652418 0.00014519185 
 6255000   0.97014028   -3.8420465   0.49001184   -2.0180918 0.0003676477 
 6256000   0.67787217   -3.8807275   0.46056159   -2.4880917 0.00037803523 
 6257000    1.5602169   -4.0702518   0.43862314   -1.4863304 0.00010581576 
 6258000   0.87872237   -3.8615303    1.0929212   -1.5603659 -0.00041907382 
 6259000   0.64247163   -3.8748666   0.67939668   -2.3120714 0.0001841665 
 6260000   0.94078888   -3.7055411   0.41899833   -1.9929581 -8.2492717e-06 
 6261000   0.81132673   -4.1154735   0.14234245   -2.8575568 8.2717968e-05 
 6262000   0.95910848   -4.0722001   0.37435838   -2.3790676 -0.00015299364 
 6263000    1.2778526   -4.3764109   0.72625204   -1.8931116 -6.4840822e-05 
 6264000   0.80570011   -4.3325844   0.30290996   -2.9218368 7.0332584e-05 
 6265000    1.0034638    -3.683989    0.5792198   -1.7250064 -0.0002561308 
 6266000    1.1836383   -4.2231515   0.77535165   -1.8202972 -6.5568398e-05 
 6267000    0.7942484   -4.1579798   0.50641728   -2.5594709 6.1870238e-06 
 6268000    1.4258958    -4.164287   0.45994742   -1.7437329 -0.0001878151 
 6269000     1.257314   -4.1392929   0.36040693   -2.0500793 0.00013391791 
 6270000    0.9027321    -3.967999   0.67010112   -2.0566412 0.00013253266 
 6271000    0.5610455   -4.0663172    0.2991684   -2.9957113 0.00029589881 
 6272000    0.7022644   -3.7231451   0.30837547   -2.4491561 0.00026500276 
 6273000   0.81597702   -4.3708502   0.38884126   -2.8600405 -1.4195306e-05 
 6274000   0.87329995   -3.1084006   0.71191679   -1.1956964 1.6078324e-05 
 6275000   0.82137199    -3.997115   0.64437027   -2.2233583 -2.3072265e-05 
 6276000    1.0881648   -3.3662635   0.28072298    -1.589314 0.00034484679 
 6277000    1.0203994   -3.8715462   0.23840267   -2.2300943 0.00021654913 
 6278000    1.4155817   -3.2854168    1.2145176  -0.12447445 -0.00034764004 
 6279000   0.78440519   -4.1449907   0.39770992   -2.6687236 0.00020952594 
 6280000   0.97642242    -3.958701   0.55753014     -2.05859 -0.00032686049 
 6281000     1.190156   -4.1476119    1.0095818   -1.5015656 -0.00016120549 
 6282000   0.83822441     -4.29917   0.61265792   -2.5339535 -0.00046221897 
 6283000    1.2377317   -4.1477241   0.44673127   -1.9991118 0.00010709589 
 6284000   0.44877302   -4.0269703    0.5677061   -2.8422013 0.00051662885 
 6285000    1.0013644     -3.96459   0.45700363   -2.1307103 0.00015287855 
 6286000   0.94096054     -3.93911   0.73439325    -1.910896 -0.00016504919 
 6287000    1.2662117   -3.5824038   0.36501869   -1.4763441 -5.8468654e-06 
 6288000   0.64990933   -4.2839694   0.43265979   -2.9576843 -0.00011910491 
 6289000   0.56327339   -3.7611407   0.24937044   -2.7372694 2.8351205e-05 
 6290000   0.95269485   -3.9748706   0.76831859   -1.8965966 0.00025705937 
 6291000    1.0523612   -3.6084056   0.41475883   -1.7466501 0.00028069072 
 6292000   0.80592316   -4.2297931   0.33855756   -2.7830912 9.2550251e-05 
 6293000   0.95209731   -3.8921728   0.29149051   -2.2915485 -0.00021989659 
 6294000    1.4806465   -4.3242854    1.1091292   -1.1792673 4.5949676e-05 
 6295000    1.7395019   -3.5131067   0.18448522  -0.93680626 6.6068549e-05 
 6296000   0.97699585   -3.9599819    0.2888971   -2.3277156 0.00020360312 
 6297000    1.2460273   -3.8381828   0.48751133    -1.637384 -2.3459264e-05 
 6298000   0.57432188   -4.2539883    0.2685307   -3.1957651 -2.7279836e-05 
 6299000    1.1201133   -3.8354611   0.35517293   -1.9401324 0.00013014475 
 6300000   0.47442635   -4.2564686   0.50824838    -3.095884 9.6142891e-05 
 6301000   0.72493391    -3.682149   0.72127517   -1.9640897 0.00039982766 
 6302000    0.8306161   -3.4133723   0.22813823    -2.043137 0.00030423699 
 6303000   0.78169895   -3.5647185   0.49180379   -1.9980787 0.00020142478 
 6304000   0.64925073   -3.7893043   0.46564451     -2.43094 -0.00019982447 
 6305000    1.0628795   -3.8870989   0.44908267   -1.9765569 0.00035805246 
 6306000   0.89300733   -3.7751768   0.55954431   -1.9877475 0.00019192724 
 6307000   0.81047202   -4.0612105   0.38408177   -2.5627297 -0.00027670217 
 6308000     0.886843    -4.169426   0.93377529   -2.0162416 -0.00018026628 
 6309000   0.72756563   -4.4531489    0.5050269   -2.9477193 -8.7769643e-05 
 6310000    1.0174355    -3.646614   0.31270536   -1.9349349 0.00048519787 
 6311000    1.0220718   -3.9297085   0.35892251   -2.1654373 3.5243023e-05 
 6312000   0.66294967   -4.3473346   0.68561647   -2.7501624 -8.2494528e-05 
 6313000   0.93409992   -3.3450952   0.54079226   -1.5199155 2.8441584e-05 
 6314000   0.77993929   -3.8283564    0.5839951   -2.1719448 -0.00033433851 
 6315000   0.93764764   -3.2725502   0.27987054   -1.7034142 -0.00019798445 
 6316000   0.62802211   -3.9631365   0.34568233   -2.7539237 -0.00019538394 
 6317000    1.0618428   -3.5392105    0.3748456   -1.7043311 0.00063589751 
 6318000    1.1701816   -3.3390523   0.37182414   -1.3582284 0.00038183199 
 6319000   0.60392197   -3.8825378   0.65343777   -2.3987073 -7.1815765e-05 
 6320000   0.94935386   -3.9493766   0.69442303    -1.949592 -0.00038271569 
 6321000    1.2140053   -3.7595397   0.41266681   -1.6776157 -0.00014222114 
 6322000   0.50476146   -3.6191884   0.77291763   -2.1522238 7.796865e-05 
 6323000    1.4213529   -3.8590475   0.99094835  -0.91373887 -0.00017046047 
 6324000    1.3275835   -3.7634984   0.43824986   -1.4998212 0.00013581308 
 6325000   0.83078345   -3.3644468   0.30921729   -1.9129023 0.00018549771 
 6326000   0.90751267   -3.8422935   0.39668293   -2.1977806 0.00019438595 
 6327000   0.83494492   -3.8334991   0.39024867   -2.2952012 0.00016422624 
 6328000    1.1551801   -4.3779297   0.45891043   -2.3306466 -0.00010269849 
 6329000    1.1785457   -3.6725618   0.43247648    -1.619585 0.00010473837 
 6330000   0.60169155   -4.2856982   0.39204211   -3.0663302 -2.2918816e-05 
 6331000     1.111227   -4.1273039   0.59532911   -2.0040377 8.6404525e-06 
 6332000   0.53016551   -4.3553338   0.58106011   -3.0452961 0.0005087977 
 6333000    1.1471348   -3.8609408   0.66437063   -1.6192598 -3.6042551e-05 
 6334000    1.0415108   -4.1229604   0.53944058   -2.1514425 3.0271864e-05 
 6335000   0.72086459   -3.6075078   0.51175203   -2.1045669 -0.00011147947 
 6336000   0.73433724   -3.5952138   0.54062565   -2.0448744 5.2895398e-05 
 6337000    1.0020052   -4.0863373   0.66598404    -2.042596 0.00020187306 
 6338000     1.126614   -4.0792814   0.59518206   -1.9350051 -0.0001861264 
 6339000   0.83152416   -3.6727968   0.84827046   -1.6811806 -0.00016543818 
 6340000   0.62505065   -3.6460213   0.25093668     -2.53564 0.00013728337 
 6341000    1.6397735   -4.0238865   0.92710343  -0.84209448 0.00019258462 
 6342000   0.44515686   -3.8228126   0.48910464   -2.7216173 0.00037098418 
 6343000   0.86701869   -3.6571083   0.25865674   -2.2063009 7.0255755e-05 
 6344000    1.3449402   -4.0840508   0.90474722   -1.3300108 -9.4805512e-05 
 6345000    1.0205014   -3.6976316   0.89285812    -1.401584 -0.00015226696 
 6346000   0.91419254   -4.2213587   0.77580504   -2.1885389 8.756418e-05 
 6347000    1.0301693   -3.6003406   0.51775921   -1.6660986 -0.000195074 
 6348000   0.67181919   -3.3519413   0.60353398    -1.824656 0.00061458847 
 6349000    1.2412759   -4.1643728   0.54720486   -1.9104135 -0.00030405539 
 6350000   0.83749453   -4.0988112   0.21503052   -2.7322257 -8.3546062e-05 
 6351000    1.1964493   -3.8908914   0.49534117   -1.7504325 0.00025279755 
 6352000    0.6980042   -3.7969719   0.50200002   -2.3352161 0.00048225908 
 6353000   0.87001471   -4.2929592   0.51070935   -2.5859797 -0.00025242874 
 6354000    1.0442166   -2.9415079   0.35021362   -1.1554965 1.2038023e-05 
 6355000    1.1924529   -3.8076917   0.29865585   -1.8694131 0.00036007205 
 6356000    1.3097485   -4.1387902    1.1126221    -1.225264 0.00011910476 
 6357000     1.272246   -4.4438555    1.0302695   -1.6642478 -2.3478777e-05 
 6358000    1.1088641   -4.0845844   0.60750571   -1.9523906 -0.00029591534 
 6359000    1.0066745   -3.8217047   0.54195739   -1.8955699 -9.7920521e-05 
 6360000    0.6242565     -4.13325   0.56018129    -2.714716 4.1305787e-05 
 6361000   0.96895477   -3.7898054   0.45637705   -2.0011155 1.1190402e-05 
 6362000   0.71008781   -3.7990227   0.33504049   -2.4876114 -4.9408205e-05 
 6363000    1.3459526   -3.3981493  0.097978444    -1.449486 0.00017695552 
 6364000    1.0044513   -4.2165248   0.39928769   -2.4361166 0.00023788909 
 6365000    1.1371228   -4.1375801   0.17793326   -2.3961029 0.00029041971 
 6366000    1.0505482   -3.7755742    0.5048952   -1.8261753 0.00022180064 
 6367000   0.71992036   -3.6191478   0.44640587   -2.1828515 2.6439049e-05 
 6368000   0.74964439   -3.9615902    0.5172921   -2.4135371 -9.1803947e-05 
 6369000   0.94221153   -3.0740788   0.28910441   -1.4894335 0.00011874841 
 6370000   0.67520594   -4.0022142   0.71426485   -2.3595411 -0.00045016432 
 6371000   0.44042093   -3.6590316   0.44644347   -2.6070094 -7.783156e-05 
 6372000    1.3465853   -3.0355174   0.38324298  -0.80071961 0.00014372115 
 6373000    1.3006389   -3.5391419   0.56433827    -1.186425 -0.00022047176 
 6374000    1.1537489   -3.8077719   0.88457949   -1.3367877 -0.00010122505 
 6375000   0.78403986   -3.7667398   0.42040084   -2.2682842 -0.00024818505 
 6376000    1.1992534   -4.1463721   0.45297104   -2.0444276 4.9073069e-05 
 6377000   0.90272432   -3.5384229   0.45219652   -1.8449804 -1.8072066e-05 
 6378000   0.89926722   -4.5195483   0.39227924   -2.8907766 -0.00012194099 
 6379000    1.0802625   -3.9319065   0.56863135   -1.8779142 -0.00022877305 
 6380000   0.65860906   -4.4340756    0.5715225   -2.9569656 -2.7254425e-05 
 6381000    1.1823019   -3.7084155   0.36255669   -1.7201937 2.1182026e-05 
 6382000    1.4789096   -4.0034835   0.65979129   -1.3101915 0.00052096212 
 6383000    1.0097718   -4.0740038   0.42103068   -2.2645369 -2.1273434e-05 
 6384000    1.0351862   -3.7593833   0.47693998   -1.8590623 -0.00021925165 
 6385000   0.70463931   -3.6387023   0.37582486   -2.2939984 -0.00014519783 
 6386000   0.78581327   -3.2918802   0.99674353   -1.2146434 -0.00013007429 
 6387000    1.2012699   -4.1096585   0.57762245     -1.88029 0.0003386812 
 6388000   0.94872389   -3.0787979   0.74149701   -1.0328055 -0.00046441791 
 6389000    1.1235283   -3.9158373   0.43536132   -1.9356245 -0.00012825723 
 6390000   0.72161925   -3.7336493    0.2047152   -2.5367077 9.2061873e-05 
 6391000   0.86340374   -3.6961054   0.44562616   -2.0632991 -0.00029464561 
 6392000   0.77983983    -3.259616   0.58207039   -1.6052658 0.00040903884 
 6393000    1.2944645   -3.1662254   0.32214532   -1.0641914 0.00018253307 
 6394000    1.0364241   -3.1746143   0.55503694   -1.1944943 -0.00013803568 
 6395000   0.80232086   -3.9480399   0.52003962   -2.3248091 0.00012011838 
 6396000   0.97806128   -3.6727246   0.65867871   -1.6692116 -0.0006769685 
 6397000    1.5083527   -3.5232392   0.75327875  -0.69597543 -0.00034543724 
 6398000    1.0355043   -4.2254109   0.52893032   -2.2726621 0.00028039823 
 6399000   0.98080771   -3.7029643   0.90756009   -1.4467936 -0.00025259879 
 6400000     1.069589   -4.1713304    0.4687436   -2.2319019 -0.00024277301 
 6401000    1.0514313   -3.7575185   0.92841162   -1.3833888 -0.00016815167 
 6402000    0.9170966   -4.2752186    0.5309248    -2.483286 -6.961378e-05 
 6403000   0.76532565   -3.6344241   0.82579538    -1.756306 -0.00059582591 
 6404000    1.7041156   -4.3093185   0.24345676   -1.7227029 0.00013950834 
 6405000   0.76680218    -3.587028    0.2565594   -2.2761156 3.7198411e-06 
 6406000    1.2644401   -3.1309256    0.3079233   -1.0843973 -0.00011332293 
 6407000    1.0000711   -3.7512137   0.30202473   -2.0740913 -0.00013283703 
 6408000     1.089454   -4.2050663   0.74549406    -1.961573 -0.00018947949 
 6409000    1.3194008   -3.3410864    0.4661233    -1.060787 3.7987323e-05 
 6410000    1.3161573   -3.6848631   0.32831336   -1.5468336 0.0003878599 
 6411000   0.77686126   -4.3095785   0.97600676   -2.2653875 -0.00026032223 
 6412000    1.0119541   -3.7476489   0.36344393    -1.992768 -0.00025040704 
 6413000   0.79204596   -4.2379117   0.28723278   -2.8616157 4.8282469e-05 
 6414000   0.87745739   -3.7988232   0.45111494   -2.1412043 0.00021710617 
 6415000    1.0423153   -4.0418364   0.50653942   -2.1021134 0.0001758932 
 6416000   0.81403576   -3.6329226   0.66579221   -1.8478312 5.1895229e-05 
 6417000   0.87639196   -3.8362562   0.37852879   -2.2526884 0.00017198451 
 6418000    1.1192004   -3.7975935    0.5756876   -1.6830053 -0.00013099218 
 6419000   0.92361323    -3.698866   0.61923637   -1.8096614 1.9241272e-05 
 6420000   0.53023769   -3.7619264   0.91910305   -2.1137465 -1.180887e-06 
 6421000   0.82797623   -3.8893029    0.7020497   -2.0487859 -0.0003566093 
 6422000   0.70868395   -4.0874345   0.32179316   -2.7912009 -8.1368515e-05 
 6423000    1.3818763   -3.9277474   0.34148651   -1.6861809 -0.00019031597 
 6424000    1.2161869    -4.039437   0.63725373   -1.7299263 -0.00024652371 
 6425000   0.62989129   -3.8795483   0.48390801   -2.5295398 -0.00038071587 
 6426000    0.9653621   -3.7884164    0.6217272   -1.8393163 7.4698807e-05 
 6427000    1.4000163   -4.1793408   0.43378738    -1.820531 0.00020682845 
 6428000    1.6123782   -4.2362749   0.54267064   -1.4765842 0.00023352854 
 6429000   0.77746947   -3.4448392   0.33701444   -2.0388042 0.00076026889 
 6430000    1.0444326   -3.8187668   0.21142561   -2.1712463 0.00016055025 
 6431000   0.88233736   -4.1511352   0.67361654   -2.2643048 4.8311054e-05 
 6432000   0.87442913   -3.6857897   0.38596616   -2.0974835 -0.00016143435 
 6433000    1.1566459   -4.3553338    0.2595911   -2.5053545 2.7597222e-05 
 6434000    1.0316533   -3.7739019   0.63503518   -1.7203434 -3.50969e-05 
 6435000   0.73574055   -4.0396339   0.57233861    -2.455652 -0.00031907855 
 6436000   0.97031566   -3.3745946   0.79383484   -1.2465757 0.00032166565 
 6437000    1.1314774   -3.9995386   0.38364684   -2.0601104 6.5251952e-05 
 6438000   0.92821644   -3.5178436    0.1736971   -2.0678489 8.0827385e-05 
 6439000    1.4416401   -4.2079951   0.55988364   -1.6658563 9.9741893e-05 
 6440000    1.1668736   -3.9048479   0.69289222   -1.6075044 -0.00038335762 
 6441000   0.56458938   -3.8528741   0.53749854   -2.5390652 -0.00021636498 
 6442000   0.92991576   -3.8426981   0.45445593    -2.109608 -0.0001180905 
 6443000    1.4035404   -4.3918413   0.47012831   -1.9918449 3.0823613e-05 
 6444000    1.0012448   -3.6905925   0.42033185    -1.893549 4.7030504e-05 
 6445000    1.4272772   -3.4728669    1.3967458  -0.11361494 -0.00018612251 
 6446000   0.75449335   -3.7874685   0.40382949   -2.3462107 0.00026610647 
 6447000     1.080355   -3.5411133    0.5489848   -1.5066404 -6.9502367e-05 
 6448000    1.1370553   -3.9225546   0.66055752   -1.6985461 -0.00036865577 
 6449000    1.6069605      -3.7204   0.62002276  -0.89080649 0.00056095995 
 6450000   0.84761224   -3.1735849   0.62070839   -1.3874096 0.00041626305 
 6451000    1.6676144   -4.0586023   0.25993322   -1.5056992 -0.00016794303 
 6452000    1.1200951   -3.1791946   0.98794469  -0.65111919 8.0270193e-05 
 6453000    1.0146359    -2.981545   0.68222377  -0.90419694 -0.00027154433 
 6454000   0.87028056    -2.429803   0.16297917   -1.0701881 -9.5560573e-05 
 6455000   0.76294737   -3.8170838   0.52322513    -2.244806 -2.3905629e-05 
 6456000      1.16489    -4.071755   0.52030326    -1.949728 2.6401072e-06 
 6457000    1.0291118   -3.5560403   0.54402117   -1.5969903 -0.00017950592 
 6458000   0.96825301   -3.1580715   0.63070834   -1.1960153 -0.00023042334 
 6459000    1.1894484   -4.0047329   0.40966198   -1.9595794 -0.00016602258 
 6460000    1.1061088   -3.7679491   0.47927424   -1.7677753 0.00042077974 
 6461000    1.3553052    -3.933093   0.59771336    -1.471835 -0.00042727581 
 6462000    1.1191398   -4.2327091   0.45049596   -2.2433958 -0.00024347683 
 6463000   0.90983408   -3.5692044   0.90238681   -1.4157957 4.5090813e-05 
 6464000    1.4678672   -3.7360561   0.59271397   -1.1250248 6.5265812e-05 
 6465000    1.3315447   -4.1461899   0.19932874   -2.1159872 0.00010035787 
 6466000   0.48603372   -3.0620056   0.83527331   -1.5584359 -0.00028188619 
 6467000   0.76534602   -3.5378664   0.44632056   -2.0391951 0.00046543402 
 6468000    1.2232587   -4.1128564   0.83484145   -1.5960343 -0.0004740369 
 6469000   0.74626463   -3.4015778   0.46478515   -1.9106788 0.00014935815 
 6470000     1.336362   -3.7874161   0.58572268   -1.3641956 1.9411616e-05 
 6471000   0.83966195   -3.8361771   0.24933308   -2.4323088 0.00042443149 
 6472000    1.0417329   -4.2943468   0.55097984   -2.3109842 -4.6293484e-05 
 6473000    0.8613034   -3.7226416   0.28677556   -2.2515738 -0.00019706581 
 6474000    1.2043941   -3.6483427   0.27485794   -1.7174429 6.6408319e-05 
 6475000   0.84134665   -3.8556424   0.38666811   -2.3121226 4.8001826e-05 
 6476000    0.8888292   -3.5221512   0.49250254   -1.8075085 0.00016980697 
 6477000   0.65866064   -4.2053663    0.4498619    -2.849846 -0.00029440671 
 6478000   0.98140493   -4.1375007    1.1474696   -1.6405994 -0.00011194275 
 6479000   0.88145625   -3.5767535   0.56233005   -1.8024211 0.00012624745 
 6480000   0.72775887   -4.4338312   0.32844012   -3.1047227 8.8609695e-05 
 6481000    1.2922799   -4.2410696   0.78800888   -1.6761759 -0.00014556712 
 6482000   0.88152954    -4.011691   0.59083661   -2.2087513 -0.00034726617 
 6483000   0.82728946   -4.1936676   0.57262383   -2.4835208 0.00012227398 
 6484000    1.0851679   -3.8089744   0.48804818   -1.8288203 -0.00043795686 
 6485000    1.0725793   -3.6938783   0.64256687   -1.5765149 -0.0002754275 
 6486000   0.62677434   -4.4136338   0.48604306    -3.065776 7.6466507e-05 
 6487000    1.2744802   -3.8905919   0.61871449   -1.5194671 -1.0756916e-05 
 6488000   0.76729408    -2.691056   0.61624564    -1.019781 -0.00014927676 
 6489000    1.1166851   -4.2502348    0.6960448    -2.018748 -0.0002754484 
 6490000    0.9682984   -3.7674946   0.47284486   -1.9632394 -0.00010022688 
 6491000   0.95721065   -3.7951104   0.16809183   -2.3108539 0.00038924958 
 6492000   0.96743599   -4.0868608   0.20366467   -2.5529716 5.0545407e-05 
 6493000    1.0312934   -3.7950523   0.37988899   -1.9971349 0.00015652933 
 6494000   0.98203305   -3.6440546   0.56976016    -1.723999 0.00020999365 
 6495000    0.8298426   -4.0796333   0.29644523   -2.6421545 0.00011044978 
 6496000    1.4498345   -3.9159626   0.66486605   -1.2575741 -0.00015767535 
 6497000   0.95251811   -3.5355099   0.57649844    -1.649299 0.00010864611 
 6498000   0.66446444   -4.1785329    1.0404901   -2.2244042 -5.6699495e-05 
 6499000    1.1407267   -3.6475045   0.42892854   -1.6500768 0.00040256293 
 6500000    1.1521726   -3.3731156    0.7262876   -1.0625906 0.00040657063 
 6501000    1.0590136   -3.4342299   0.28875884   -1.6893274 -5.6146243e-07 
 6502000   0.70564088    -3.833508   0.65856845   -2.2046834 -0.00022052622 
 6503000    0.9971134   -3.5823476   0.65534524   -1.5559714 -8.8653854e-05 
 6504000   0.95613992   -4.0675387   0.82167665   -1.9311697 5.2837823e-05 
 6505000    0.9476618   -3.8278405   0.76675356   -1.7580519 0.00020651004 
 6506000   0.72873701   -3.9591528   0.51087501   -2.4462644 0.00016472418 
 6507000    1.1020754   -4.0217448   0.37617167   -2.1302195 3.9652896e-05 
 6508000    1.0688373   -3.8183865   0.94375021    -1.404985 -0.00022771398 
 6509000   0.85384872   -3.9881121   0.38843307    -2.425637 -0.00010352718 
 6510000   0.75836695   -3.9268769     0.426223   -2.4578994 0.00018900702 
 6511000    1.1798195   -3.7688397    0.7098892   -1.4366987 -0.00033433047 
 6512000    1.0343131   -3.7572131   0.37908157   -1.9559511 -0.0001969001 
 6513000    1.2181603   -3.8848923   0.56323291    -1.646689 -0.00037312885 
 6514000   0.91729601   -4.2186084   0.66756092   -2.2897655 0.0001919126 
 6515000    1.4684486    -3.711731    0.6369058   -1.0557084 0.0001635347 
 6516000    1.3609109   -4.2409673   0.32826968   -2.0414452 7.4442032e-05 
 6517000   0.91333325   -3.5747192    0.8302749    -1.488611 -0.00049239532 
 6518000    0.7318686   -3.8564945   0.58077389   -2.2694013 -0.00013380755 
 6519000    0.8728178   -3.4605971   0.69131598   -1.5691566 -3.1092492e-05 
 6520000   0.81254103    -4.092055   0.31459874   -2.6602124 9.1306019e-05 
 6521000    1.0212115   -3.4807881   0.80882076   -1.2678015 -0.00014436507 
 6522000    1.2527466   -3.6717119   0.66945571   -1.2797297 0.00013695176 
 6523000   0.60462992   -3.7555608   0.63501657   -2.2891781 -0.00016347522 
 6524000    1.1978094    -3.047313   0.32006709   -1.0802579 -3.9051277e-06 
 6525000    1.0485341   -4.0588851     0.480282   -2.1368687 0.00022170057 
 6526000     1.378928   -3.5404358    0.2301479   -1.4142619 0.0002365902 
 6527000   0.90756218   -4.1586487   0.72229596   -2.1884547 0.00013284223 
 6528000    1.0585737   -4.0044101   0.38426727    -2.164604 2.7772131e-05 
 6529000    1.0966564   -4.0584993   0.16827834   -2.3823184 0.00019014149 
 6530000   0.96041308   -3.7226573   0.56422862   -1.8378607 -0.00015094155 
 6531000    1.1710491   -4.1648467   0.58003231   -1.9746219 -0.00019782967 
 6532000   0.72102513   -3.7534657   0.26874043   -2.4933157 2.3072459e-05 
 6533000   0.66416992   -3.8228175   0.30437619   -2.6052077 0.00028601779 
 6534000    0.7544402   -3.1922697    0.6592915   -1.4956229 -0.00033191907 
 6535000   0.69047734   -3.7429819    0.2817697   -2.5118058 -0.00020239394 
 6536000    1.0468703   -3.6255073    0.3210382   -1.8650224 0.00069651707 
 6537000    1.0404146   -4.0066869   0.28437734   -2.2917395 -0.00013361263 
 6538000   0.93739871   -4.1324984   0.85324995   -1.9903252 5.4091598e-05 
 6539000   0.78349685   -3.0920434   0.37185537   -1.6428799 -3.1001513e-06 
 6540000    1.0084489    -4.267005    0.3562175   -2.5241703 0.00016347988 
 6541000   0.77574065   -3.6599763   0.34376467   -2.2495682 8.8269759e-05 
 6542000   0.67043589    -4.028762   0.40895344   -2.6979592 -0.00028603197 
 6543000    1.2980261   -4.1213514    0.6477626    -1.688803 0.00024716546 
 6544000   0.78840182   -3.9008469   0.60874459   -2.2080498 -0.00016517599 
 6545000    1.3327245   -3.6359508    1.1626527   -0.6408019 0.00021975019 
 6546000    0.7652678   -2.9508245   0.95979511  -0.93878613 -0.00015997496 
 6547000    1.2078842    -4.184115    0.5392594   -1.9840149 0.00010833716 
 6548000    0.9724427   -4.0534691   0.59120579   -2.1251546 3.7917159e-05 
 6549000    0.8085432   -4.0204529   0.47044649   -2.4382595 -0.00015741395 
 6550000   0.62061996   -3.7426325   0.78046991   -2.1088102 -0.00014360645 
 6551000    1.3560997   -4.0789314   0.34072442   -1.8735699 -9.4660385e-05 
 6552000    1.1098367    -3.733854   0.30741754    -1.900411 -9.482932e-05 
 6553000   0.76192743   -3.7490441   0.46987133   -2.2315225 -0.00032337403 
 6554000   0.97712953    -3.354702   0.43235223   -1.5787967 8.0178727e-05 
 6555000   0.80305971   -4.3103088    1.1457965   -2.0603051 -0.00063423152 
 6556000    1.0721971   -3.4463091   0.47565763   -1.4963805 0.00010591258 
 6557000   0.66235199   -3.9178391   0.36914538   -2.6379598 0.00013393678 
 6558000    1.1692868   -2.9387046    1.2087949  -0.12214039 -0.00039854051 
 6559000   0.89684186   -3.7126487   0.44594288   -2.0335483 -0.00030909516 
 6560000     0.901736   -3.7545607   0.31772526   -2.1969485 9.5881491e-05 
 6561000    1.0683461   -3.9248991   0.37467556   -2.0812476 0.00031254159 
 6562000   0.64781437   -4.0086608   0.55686874   -2.5610473 -0.00031214827 
 6563000     1.680551   -3.8604265     1.255504  -0.29416474 -0.00050155441 
 6564000   0.97296375   -3.9445106   0.58372733   -2.0229581 -0.0003191364 
 6565000   0.92876771   -3.5142459   0.34324031     -1.89395 -0.0001186408 
 6566000    1.3862639   -3.4413064    0.6757286   -0.8594649 0.00052833246 
 6567000    1.0263815    -3.341758    0.5871638   -1.3433197 0.00020362947 
 6568000   0.79336379   -4.0566718   0.53741112   -2.4283855 -0.0003298548 
 6569000   0.85913021   -4.3652459   0.65550746   -2.5284344 0.00031395408 
 6570000   0.97680997    -3.875673   0.27134874   -2.2612106 -0.00015047823 
 6571000   0.80569108   -3.4715867   0.60872106   -1.7550404 -2.1919727e-05 
 6572000   0.90782417   -3.8579158   0.38603333   -2.2236242 -9.9025845e-05 
 6573000   0.83227022   -4.1855432     1.231393   -1.8097786 -0.00045087402 
 6574000    1.0103149   -3.4814933   0.47789521   -1.6144151 -0.0001259115 
 6575000   0.80223891   -3.9025727   0.36810509   -2.4313891 -4.854934e-05 
 6576000    1.1022913    -3.745072   0.89066814   -1.3387534 2.2544007e-05 
 6577000    0.7675318   -4.0989375   0.71172635   -2.3318549 -7.2894879e-05 
 6578000    1.2973133   -3.1829717   0.56054322  -0.83862274 3.491771e-05 
 6579000    1.2162091   -4.3800823   0.35877745   -2.3490174 8.620171e-05 
 6580000   0.76466843   -4.1613435   0.32927952   -2.7806449 -1.9744823e-05 
 6581000   0.73378033   -3.8716065   0.40928916   -2.4533694 -4.559759e-05 
 6582000   0.63225123   -4.0717767   0.70118466   -2.5012466 -0.00011119562 
 6583000    1.1810432   -3.8557935   0.81904972   -1.4128093 0.00050995784 
 6584000    1.1294358   -4.3813186   0.62415478   -2.2041897 0.00020201469 
 6585000    1.0133709   -4.1411897   0.49612154   -2.2516832 0.00017040762 
 6586000    1.2417458   -3.6720477    0.3515769   -1.6130703 0.00043928695 
 6587000   0.95075488   -3.9866789   0.27046878   -2.4089221 0.00018165222 
 6588000    1.2250033   -3.7075121   0.44080473   -1.5823278 0.00026240372 
 6589000    1.0937431    -4.171223   0.75125906   -1.9160672 0.00025509353 
 6590000   0.99845235   -4.2514772    0.4648572   -2.4137481 1.104948e-05 
 6591000   0.81081475   -3.6178701   0.33850967   -2.1644901 0.00034682802 
 6592000   0.94804842   -3.6623922   0.36354018   -1.9952854 -0.0003161864 
 6593000   0.79445207   -4.1023541   0.36214732   -2.6478351 -0.00050351719 
 6594000   0.88513585   -3.9370101    0.5289953    -2.190953 0.0002359376 
 6595000   0.80560895   -3.9330403   0.29564309   -2.5296849 0.00021066757 
 6596000    1.0421907   -4.2183472   0.62158711   -2.1637478 0.00017930668 
 6597000   0.91816427   -3.9290375   0.24997539   -2.4165863 7.3694189e-05 
 6598000    1.1892262     -4.09433   0.70619565   -1.7529484 -5.9708619e-05 
 6599000    1.1171025   -3.6332463   0.64951453   -1.4477158 8.8142392e-05 
 6600000   0.80761803   -3.9540448   0.38512559   -2.4584445 -3.8262043e-05 
 6601000    1.0080622   -3.5980932   0.57123368   -1.6407739 -1.8804378e-05 
 6602000    1.0772666   -4.1728419   0.37228911   -2.3193113 -0.00035926492 
 6603000    0.9509516   -3.6804533   0.54827928   -1.8246156 -6.7468327e-05 
 6604000    1.2058695     -4.32237   0.43219897   -2.2321005 -0.00010431578 
 6605000   0.83582064   -4.0310041   0.70856524   -2.1731855 -7.6900639e-05 
 6606000   0.83760402   -4.3318653   0.90021348   -2.2799463 -0.00029579013 
 6607000   0.82177213   -3.5705143    1.0405864   -1.3999913 -5.0086778e-05 
 6608000    1.2148151   -4.2190516   0.53248573    -2.016195 0.00011332052 
 6609000   0.91853733   -3.4522537   0.36046682   -1.8287981 -0.00010826244 
 6610000    0.4873353   -3.4678386   0.64665657    -2.151096 0.00049507885 
 6611000   0.88924434   -3.5866649   0.45926391   -1.9046901 -0.00015397975 
 6612000   0.94174698   -3.9930286   0.54988106   -2.1482455 0.00017434659 
 6613000   0.81324212   -4.3631711   0.58150503   -2.6634581 -0.00013817601 
 6614000    1.7406048   -3.4081943   0.68705584  -0.32780694 -0.00018816145 
 6615000   0.88708084   -3.9548465   0.56391501   -2.1711953 -0.00024232827 
 6616000    1.0043043   -3.9651011   0.16354677    -2.420636 0.0004608133 
 6617000     1.267865   -4.1916913   0.38469145   -2.0636855 -9.3999205e-06 
 6618000    1.3414925   -4.0768386   0.80206072   -1.4302257 -0.0001232366 
 6619000   0.94864141    -3.885825   0.55416117   -2.0272819 -0.00026973575 
 6620000    0.9946387   -4.1418904   0.15184022    -2.622422 -1.186471e-05 
 6621000   0.53562773   -3.9324255   0.24312907   -2.9528083 8.1022361e-05 
 6622000   0.90298793   -4.2768672   0.48108158   -2.5541772 0.00025388627 
 6623000   0.94569818   -4.2019965   0.26329512   -2.6383664 -9.4116557e-05 
 6624000   0.86538442   -3.9919583   0.51466985   -2.2873849 -9.5559731e-05 
 6625000     1.510433    -3.635591   0.42233157    -1.136414 4.4230425e-05 
 6626000    1.1177911    -4.182845   0.65688363   -1.9889985 -7.8364059e-05 
 6627000    1.0902031   -4.0976226    0.3811531   -2.2174403 6.6752267e-05 
 6628000    1.4412409   -4.2533054   0.81732546   -1.4542737 -0.00030950958 
 6629000    1.6996398   -4.2044534   0.17771286   -1.6897358 0.00023469909 
 6630000    1.0255698   -3.3155349   0.40210139    -1.503275 0.00022321257 
 6631000   0.66353534   -4.2039093   0.59415843   -2.6973898 -0.0001640404 
 6632000   0.84458931   -4.1279964    0.5540991    -2.412587 0.00019927837 
 6633000   0.79901687   -4.1527452   0.40654491   -2.6475521 -2.5876957e-05 
 6634000   0.85564148   -4.1587422   0.45728527   -2.5249498 -0.00022281338 
 6635000    0.7882335   -4.4211737   0.56971078   -2.7676419 -0.00011822025 
 6636000   0.93030173   -3.6368956   0.12104845   -2.2366823 -9.8511974e-05 
 6637000    1.0540019   -3.8339644   0.57581953   -1.8088923 0.00052907936 
 6638000    1.0759924   -3.7685153   0.28421669   -2.0048091 -0.00012655871 
 6639000   0.89414677   -3.5121697   0.63175606   -1.6509618 -0.00010920191 
 6640000    1.0296263    -2.936957   0.23177472   -1.2894461 0.00011357023 
 6641000   0.86843736   -4.1445774   0.54043559   -2.4100405 -0.00011543331 
 6642000    1.2308803   -3.4870073   0.67145636   -1.1230906 -0.00047598948 
 6643000   0.86273893   -3.9406099   0.66379946   -2.0905444 0.00012458458 
 6644000   0.67520174   -3.8057318   0.81397449   -2.0633549 0.00015438507 
 6645000    1.0538563     -4.26579    0.5015067   -2.3152309 0.00048978579 
 6646000    1.0378608   -3.9836342   0.30562257    -2.250953 -0.00012049279 
 6647000   0.63899148   -3.6200137   0.22900698   -2.5123935 0.00030847855 
 6648000    1.1112091   -3.8162713   0.19991406   -2.0884447 0.00045160851 
 6649000    0.9200393   -4.1560754   0.45521066   -2.4358107 -0.0002773382 
 6650000   0.79418111   -3.1569638   0.30494756   -1.7600172 0.00036864139 
 6651000   0.76169787   -4.2252118    0.6779012    -2.499976 4.6855326e-05 
 6652000   0.71776094   -4.4102341   0.16492124   -3.2583916 -4.8762821e-05 
 6653000   0.85738834   -3.9110827   0.65688822   -2.0752855 -0.00035943994 
 6654000     1.145598   -4.0417062   0.56576047   -1.9007484 -0.00049155737 
 6655000   0.55912516   -4.0123562   0.36052453   -2.8830346 -0.00035935348 
 6656000    1.3332039   -3.7769056   0.23378035     -1.70997 0.0002231147 
 6657000   0.69967055   -4.3835344   0.23020742     -3.19128 -3.4185785e-05 
 6658000    1.0248745   -3.6789863   0.46848151   -1.8013024 0.0001102814 
 6659000     1.197982   -4.4287255    0.2845681   -2.4969322 3.5314189e-05 
 6660000   0.62885121   -4.0553219   0.67847766   -2.5121739 -7.6229333e-05 
 6661000   0.89184646   -4.1807529   0.46316006    -2.491304 7.2651768e-05 
 6662000   0.96783717   -4.0845299   0.59786727   -2.1558865 -0.00028667583 
 6663000     1.293549    -3.437784   0.32581581   -1.3333383 0.00019452289 
 6664000    0.7511254    -3.857535   0.27118065   -2.5535569 -8.3370835e-05 
 6665000   0.83947235   -4.0918678   0.29048897   -2.6471044 -0.00029976293 
 6666000   0.92220421   -3.5851351   0.34174899   -1.9753553 -0.00017107659 
 6667000   0.92792795   -4.1876141   0.44727462   -2.4644386 -4.7179273e-05 
 6668000   0.89593161   -3.7530895   0.46561082   -2.0555727 -0.00017428328 
 6669000   0.99847945   -4.3539896   0.13909759   -2.8419828 6.0411901e-06 
 6670000     1.684952   -3.9145477   0.52277417   -1.0749646 -0.00025815916 
 6671000    1.4880869   -3.8280537   0.24029103   -1.5416432 0.00019759982 
 6672000    1.3958552   -4.4701939   0.33790614   -2.2129869 0.00015375147 
 6673000    1.2231466    -3.550383   0.47552124   -1.3930352 4.3288438e-05 
 6674000    1.2038299    -3.851268   0.44322374   -1.7527782 -3.4913918e-05 
 6675000    1.4031047   -3.7213199   0.22811385   -1.5639372 0.00043095964 
 6676000    1.2689406   -4.2999532   0.39843589    -2.156724 0.0001445957 
 6677000   0.73817033   -4.0618848   0.47631287   -2.5705878 0.0001999047 
 6678000    1.0068752   -4.3904296   0.38757349   -2.6184028 5.5726731e-06 
 6679000   0.96365259    -4.285685    1.0412455   -1.9194173 -0.00035260298 
 6680000    1.2101868   -4.0381874   0.59184376   -1.7823367 0.00027926426 
 6681000    1.2428146   -3.5214869   0.37960696     -1.43301 -7.0183236e-05 
 6682000    1.3702672   -4.0333261   0.28980039   -1.8594083 2.872339e-05 
 6683000    1.0671168   -4.0311657   0.55690571   -2.0069744 3.2496135e-05 
 6684000   0.57627426   -3.4547429   0.16308494   -2.4992808 0.00037928156 
 6685000   0.98127312   -4.1058423   0.58660584   -2.1699859 -0.00028526471 
 6686000   0.86691919   -3.7720084   0.44602494   -2.1339696 0.00030380686 
 6687000    1.0320542   -3.8370556    0.3319786   -2.0860024 -0.00042519269 
 6688000    1.1268744    -3.912121    0.4330563   -1.9296124 -0.00031575744 
 6689000     1.196928   -4.3469337   0.32309162    -2.378066 2.3032036e-05 
 6690000    1.2959393   -3.6433741   0.67119127   -1.1902662 0.00010271269 
 6691000    1.1988985    -4.319089   0.60307528   -2.0675282 -0.0001289147 
 6692000   0.73025056   -3.7279194   0.85764063   -1.8661842 -0.00017169037 
 6693000   0.87415375   -4.0011518   0.24832668   -2.5508637 -6.2995848e-05 
 6694000   0.62262605   -4.1246238   0.55410284   -2.7144101 -0.00018969497 
 6695000   0.81141896   -3.7661994    0.4530963    -2.197402 -2.5350711e-05 
 6696000   0.62738313    -4.218452   0.27960346   -3.0761968 -2.6523307e-05 
 6697000   0.77867913   -3.6748885    0.3792587    -2.224946 -8.526618e-05 
 6698000    1.0168277   -3.8433005   0.27075923   -2.1744032 -4.5451021e-05 
 6699000   0.96903271   -4.1443026   0.43936358   -2.3725191  5.83755e-05 
 6700000    1.3898779   -4.1480568   0.33223251   -1.9047422 0.00018443492 
 6701000   0.91992596   -3.8271087   0.70398835   -1.8582222 0.00028564702 
 6702000     1.569948   -4.1448212   0.28264043   -1.7035022 -3.8762508e-05 
 6703000   0.83215788    -4.301144   0.56309189   -2.5938351 -0.0002263901 
 6704000    0.8510701   -3.9875856   0.42672526   -2.3906389 0.00010727522 
 6705000    1.8491494   -4.1216509   0.46893635   -1.1101342 0.00053723248 
 6706000    1.1160558   -4.0977652   0.46789345   -2.0952951 -0.00030290194 
 6707000   0.86586316   -4.1000562   0.62838914   -2.2811053 -0.00017068101 
 6708000   0.95030791   -4.4236761    0.3737448   -2.7432579 -5.8070613e-05 
 6709000   0.75083633   -4.3207073   0.72072202   -2.5675853 -3.7427549e-05 
 6710000   0.66456026   -4.1523203   0.36249234   -2.8760576 -0.0002693518 
 6711000   0.90172171   -3.6925618   0.41226224   -2.0404322 -0.00030898601 
 6712000   0.70239274   -4.2509277   0.12875197   -3.1563857 0.00015891363 
 6713000    1.0670947   -4.1517881   0.68161998   -2.0029129 -0.00010000782 
 6714000    1.1599166   -4.2907943    0.3616384   -2.3342705 0.0003271178 
 6715000    0.5682132   -4.2824547   0.41438997   -3.0867716 1.1158838e-05 
 6716000    1.0558909   -4.2464982   0.95102565   -1.8436225 -0.00047730321 
 6717000    1.1524632   -3.9759066   0.22278792   -2.1684818 -5.8963011e-05 
 6718000   0.80403011   -4.2115392   0.21465815   -2.8913397 0.00013451495 
 6719000   0.98726526   -4.1932926   0.60436327   -2.2314396 -0.00039757083 
 6720000     1.236479   -3.5251205   0.63833416   -1.1866277 6.6712552e-05 
 6721000    1.1502683   -4.4808371   0.62596946   -2.2732488 -0.00011305922 
 6722000   0.50613217    -4.325546   0.64694575   -2.9826685 9.1649852e-06 
 6723000     1.221769   -4.3548249   0.77035531   -1.9045372 -0.00064438235 
 6724000   0.70378425   -3.9204465   0.98661165   -1.9661315 -0.00019145253 
 6725000    0.5048398   -3.8867372   0.17977223   -3.0128102 0.00014744458 
 6726000    1.2166468   -3.8991754   0.77252655   -1.4537595 -9.7517716e-05 
 6727000   0.76920318   -4.3344412   0.96081392   -2.3159729 -0.00043176057 
 6728000    1.0359947   -4.0639675   0.42267221   -2.2168026 -9.3462768e-05 
 6729000   0.84436223   -4.1884309   0.32483462   -2.7025982 9.7209454e-05 
 6730000    1.1483518   -4.0049011   0.44872709   -1.9771903 0.00029551169 
 6731000    1.0111115   -3.9558751   0.31640009   -2.2491967 -7.8755469e-05 
 6732000   0.83647409    -4.281452   0.50535199   -2.6259482 -0.00019907742 
 6733000    1.1859842   -3.6338928   0.14414394   -1.8590206 -0.00023125057 
 6734000    0.7299953   -4.1383527   0.29418838   -2.8404208 -0.00022772976 
 6735000    1.2746435   -4.0164226   0.43223357   -1.8315542 0.00023235368 
 6736000   0.66944916   -4.2500697   0.50249636   -2.8270808 -0.00022594409 
 6737000   0.83841335   -3.7714409    0.4389128   -2.1797098 -0.00034351912 
 6738000    1.6289097   -4.1917198   0.53952504    -1.412444 -0.00020878799 
 6739000    1.0114122   -4.4762842   0.40733689   -2.6782556 -0.00019927713 
 6740000    1.0833368    -4.198229   0.30858972   -2.4000512 -6.7433467e-05 
 6741000   0.85704831    -3.955743   0.48644765   -2.2908539 -0.00044593845 
 6742000    1.1334218    -4.045508   0.43564567   -2.0514073 -4.5037561e-05 
 6743000    1.2484192   -4.2123322   0.23266171   -2.2630941 1.2595782e-05 
 6744000   0.92484954   -4.1838634   0.68753964   -2.2246557 -6.0673961e-05 
 6745000   0.41782365    -4.130994    0.4077194    -3.148767 5.4661754e-05 
 6746000   0.83553567     -3.84398   0.47485562   -2.2202628 -0.00010366853 
 6747000   0.77024158   -4.0660316    0.4759466   -2.5310028 -4.3058811e-06 
 6748000   0.75995104   -4.1733677   0.40310888   -2.7253261 0.00028248176 
 6749000   0.87653902   -4.1800553    0.9515569   -2.0232573 -0.0003699082 
 6750000    0.8522867   -3.9369863   0.65358772   -2.1115043 -0.00015287229 
 6751000   0.80501725   -4.2321286   0.38257474   -2.7426551 -1.9872213e-05 
 6752000   0.87978056   -3.4403192   0.50567961   -1.7249413 -6.6827013e-05 
 6753000   0.81704189    -4.200366   0.59855393   -2.4783795 -8.3406934e-05 
 6754000    0.7966013   -3.4939389   0.37654564   -2.0220665 9.6900132e-05 
 6755000   0.75222855   -4.4981194   0.84960596   -2.6141992 -0.0005075812 
 6756000   0.96019724   -4.0239842   0.30784095    -2.395872 0.00034618232 
 6757000   0.63955194   -3.8895299   0.41088357   -2.5992624 -0.0001156782 
 6758000    1.5051387   -3.7327087   0.59256384    -1.070579 4.8859833e-05 
 6759000    1.4361772   -4.1505272    0.3832227   -1.7925609 0.00028481365 
 6760000   0.87781638   -3.5625319   0.82702119   -1.5285132 -0.00026622726 
 6761000   0.90814761    -3.973568   0.39545593   -2.3294091 0.0001240412 
 6762000   0.87102795   -2.6795027   0.63580667  -0.84603255 -0.00028210917 
 6763000    1.5790253   -4.3574313    0.3485859   -1.8376856 0.00012171859 
 6764000   0.85670567   -4.3448738   0.34785587   -2.8190477 1.7524901e-05 
 6765000    1.0318761   -4.3522493   0.42530429   -2.5081154 -0.00023545219 
 6766000   0.96765743   -4.0208411   0.35189512    -2.338417 -0.00017279725 
 6767000    1.0112997   -4.1108697   0.54978007   -2.1705526 -2.21374e-05 
 6768000   0.69947205    -3.835656   0.46886471   -2.4050173 0.00017481047 
 6769000    1.0528667   -3.9144252    0.4263828   -2.0403507 -0.00016069822 
 6770000   0.87742339   -4.1846175   0.89816381   -2.0799965 -0.00010455056 
 6771000    0.5550078   -3.9547799   0.64846891   -2.5431752 0.00029294949 
 6772000   0.62061274   -3.5505562   0.59126292   -2.1059508 0.00015342033 
 6773000    1.2349313   -3.8331659   0.39038992   -1.7447455 0.00033006551 
 6774000   0.68293681   -4.2089772   0.37080714   -2.8991319 0.00011270594 
 6775000    1.0768119   -4.1117211   0.26934042   -2.3617644 0.0002464214 
 6776000    0.9482638   -3.9059356   0.38781104   -2.2142619 0.00028920724 
 6777000    1.0211769   -4.2808384   0.47369424   -2.4030259 -0.00048222917 
 6778000    1.0976495   -3.4938355    1.0468109  -0.93775644 -0.00011490816 
 6779000   0.93018809   -3.7406783    0.5019882   -1.9596815 0.00029401221 
 6780000   0.77139957   -4.2532917    0.2295354   -2.9630819 -0.0001119639 
 6781000   0.92056209   -4.0220061    0.2681685   -2.4880647 -3.6113075e-05 
 6782000    1.1840237    -4.070003    0.5593678   -1.8826027 0.00014657429 
 6783000    1.1655433    -3.663888   0.32344727   -1.7378187 9.5937444e-06 
 6784000     1.061088   -3.7961349   0.43224318   -1.9048957 3.911579e-05 
 6785000     1.216548   -4.3065843   0.35509801   -2.2787329 -0.00015276865 
 6786000   0.91212535   -3.6322115   0.74958329   -1.6284558 -0.0002216516 
 6787000   0.76206835   -3.3991725   0.55020518   -1.8011234 0.0001844683 
 6788000   0.86752696   -4.2804923   0.54848899   -2.5391538 -0.00012324684 
 6789000    1.3916059   -4.2677578   0.27311705   -2.0811827 0.00012643689 
 6790000   0.56515388   -4.2120195   0.16113152   -3.2738014 -2.1189053e-05 
 6791000    1.3351644   -4.1103886   0.20041416   -2.0741234 0.00019542459 
 6792000     1.337045    -3.841391   0.43615018    -1.566804 0.00010738348 
 6793000    1.2462603   -3.3906211    0.7016354  -0.97537775 -0.00015988053 
 6794000    1.2169578   -3.3494656   0.32732957    -1.348819 -0.00010335048 
 6795000   0.90128504   -3.9847542  0.067496953   -2.6779903 0.00018668698 
 6796000   0.99924985   -4.2297724   0.66514267   -2.1906612 -0.00052427746 
 6797000     1.346826   -4.3067121   0.57697271   -1.8778536 -1.4177534e-05 
 6798000    1.1097556    -3.914197   0.26934684   -2.1189363 3.9811602e-05 
 6799000    1.0435405   -3.9612538   0.22874928   -2.2976364 4.031722e-05 
 6800000    1.0348261   -4.1992726   0.39224469   -2.3841421 4.0655868e-05 
 6801000   0.85972995   -3.6217876   0.28989007   -2.1497688 0.00067237821 
 6802000    1.7685934   -4.3613734   0.34767258    -1.581885 0.00011257731 
 6803000   0.76954557   -4.2197578   0.25270208   -2.9089306 -0.00012604034 
 6804000    0.8946619   -4.2384205   0.47333669   -2.5349237 -0.00011442574 
 6805000   0.94829959   -4.0974113   0.46061713   -2.3328823 -0.00026593564 
 6806000   0.88065487    -3.822758   0.43930872   -2.1725488 0.00022816903 
 6807000    1.3827812   -4.2774623   0.34999205   -2.0261461 1.8463411e-05 
 6808000    1.0944103   -3.6619372    0.9805765   -1.1765465 -0.00031306173 
 6809000   0.98114168   -3.7836785   0.49297661    -1.941632 -7.3778731e-05 
 6810000     1.039525   -3.6872037   0.49580083    -1.762056 -8.72693e-05 
 6811000   0.95637949   -4.2756898   0.52794469   -2.4327233 0.00017267813 
 6812000   0.80011683   -4.2650579   0.33891342   -2.8259839 -9.9209495e-05 
 6813000   0.82657325   -4.1386803   0.65236956   -2.3497726 0.0001874595 
 6814000    1.3461294   -3.7272892   0.33161607   -1.5447452 -0.00031825153 
 6815000   0.97090929   -3.9573008   0.47730906   -2.1449915 -0.00023685484 
 6816000   0.88786798    -3.922527   0.40882941   -2.2928791 -0.00027969021 
 6817000   0.94410822   -3.7262717   0.37099255   -2.0571303 0.0002925335 
 6818000   0.77912071   -4.5036629   0.48426786   -2.9481041 -0.00015110547 
 6819000   0.98978107   -4.3422288   0.59869773   -2.3825821 -3.646838e-05 
 6820000   0.97541899    -3.810908   0.42405671   -2.0456501 7.3376541e-06 
 6821000    1.1868766   -3.9596741   0.68843987   -1.6392789 0.00022536831 
 6822000    1.0560426   -3.9188632    0.2417978   -2.2250068 0.00027108922 
 6823000   0.66100265    -3.655193   0.54472634    -2.201588 -1.4449401e-05 
 6824000    1.1650508   -3.8632401   0.54355662   -1.7177386 0.00021663454 
 6825000   0.63445705   -3.6306621   0.30863439   -2.4496493 -0.00014405974 
 6826000     1.076144   -4.0024698   0.24033993   -2.2824319 0.00060829689 
 6827000   0.99365136   -3.9079357   0.55952883   -1.9821363 -0.00011643429 
 6828000    1.0412513     -3.92805   0.53822843   -1.9581011 -2.8963315e-05 
 6829000    1.0106071   -4.0888349   0.25362655   -2.4456236 5.5971393e-05 
 6830000   0.89795329   -4.3779079   0.65725027   -2.4859718 -0.00019114212 
 6831000    1.4171635   -3.9636566    0.2575779   -1.7574789 0.00027586828 
 6832000   0.49899263   -3.7446073   0.39131795   -2.6671745 -1.3294756e-05 
 6833000    1.0410858   -3.7848214   0.37486911   -1.9784594 5.3273428e-05 
 6834000    0.8947795   -3.6352929   0.34801733   -2.0569538 -0.00022853509 
 6835000   0.99477046   -3.9861794   0.30166811   -2.3167019 7.6488713e-05 
 6836000   0.93951402   -3.7056102   0.75415333   -1.6596251 -0.00040640042 
 6837000   0.74827162   -4.1394357   0.53641664   -2.5741455 -0.00045626139 
 6838000   0.71123145   -4.0535466   0.47043385   -2.6051695 -5.4263915e-06 
 6839000    1.7214941   -4.2834146   0.30734934    -1.609011 -0.00014739937 
 6840000   0.85325386   -3.8562146   0.30372302   -2.3792676 0.00031935399 
 6841000   0.68992997   -4.0431682   0.63333184   -2.4611827 -0.00027543187 
 6842000    1.0609091    -4.172389   0.36444831   -2.3491906 0.00012032166 
 6843000   0.74500513   -4.1437428   0.73165233   -2.3877084 -0.00011544071 
 6844000   0.97593397   -3.2472057   0.53636885   -1.3689277 -0.00012527739 
 6845000   0.93765483   -3.8409865   0.23629778   -2.3154133 -7.8242656e-05 
 6846000   0.70296465   -4.1010018   0.55518663   -2.5792388 -0.00028130332 
 6847000   0.94300672   -4.0731085   0.42379848   -2.3526758 -2.6454638e-05 
 6848000   0.65300293   -3.4369731   0.34641914   -2.1926749 9.7160652e-05 
 6849000    1.2697931   -3.7677807   0.68886584   -1.3329494 -0.00015322254 
 6850000    1.0151997   -3.8357869   0.44083261   -1.9990547 -1.2138859e-05 
 6851000   0.45740559   -3.9426419   0.44050112   -2.8732081 -0.00011820787 
 6852000    1.2716247   -4.0489838   0.24146322   -2.0590366 -7.1333268e-05 
 6853000    1.3076824   -4.3634544   0.29905422   -2.2663368 -0.00011996276 
 6854000   0.84040572   -3.7932271   0.48830119    -2.149368 2.2165766e-05 
 6855000   0.96043356   -4.3732517   0.41339447   -2.6392611 0.00025496059 
 6856000   0.87885436   -3.7497865    0.1791649   -2.3621969 -7.9356509e-05 
 6857000   0.63438246   -3.8061235   0.53455289   -2.3992948 -0.00017042587 
 6858000    1.1719871   -3.5739297   0.67075079   -1.2916967 -0.0002778939 
 6859000     1.005014   -3.9411397   0.58400618   -1.9752394 -0.00035369894 
 6860000   0.99673841   -4.3489294    0.5192416   -2.4591724 -0.00016289904 
 6861000   0.99886509    -4.140958   0.27403567   -2.4934829 6.1200631e-05 
 6862000   0.92610679   -4.0500532   0.55615607   -2.2205003 -0.00024899495 
 6863000    1.1248717   -4.3630563    0.5627175   -2.2536403 9.0243323e-05 
 6864000     1.046601    -4.058061   0.62050958   -1.9984751 -1.6637498e-05 
 6865000    1.5699918   -3.9347185   0.52293299   -1.2530468 -0.0001508466 
 6866000    1.3858841   -3.6639838   0.34157148   -1.4168217 -2.746471e-05 
 6867000    1.0473341   -3.9991099   0.32624009   -2.2327854 -0.00019301168 
 6868000    1.3565302   -4.1497438   0.54635059   -1.7381643 8.6825663e-05 
 6869000   0.79043533   -4.1601074   0.31177499   -2.7614839 6.4203483e-05 
 6870000    1.5651785   -3.8028461   0.39928893   -1.2514368 -5.8083304e-06 
 6871000   0.99162418   -3.7592142   0.50809319   -1.8876377 0.00023558318 
 6872000   0.93112224   -3.6990076   0.30111867   -2.1175959 -0.0002788407 
 6873000     1.323159   -4.2530798   0.23170502   -2.2020311 -0.00020646045 
 6874000    1.0716886   -3.8587073   0.66824494   -1.7168906 -0.00029319248 
 6875000   0.88872791   -3.5541914   0.79694571   -1.5352449 -0.00035160711 
 6876000    1.2601466   -4.0519684   0.64487328   -1.6743935 0.00016314667 
 6877000   0.76265042   -3.9473453   0.40427805    -2.494423 -5.3316373e-05 
 6878000    1.0726294    -3.429797   0.47030935   -1.4846222 -0.00025562646 
 6879000   0.90308844   -4.1472065   0.43759016   -2.4678698 6.1554618e-05 
 6880000   0.82644799   -3.8031666   0.91390014   -1.7529004 -0.00033686154 
 6881000    1.3183297    -3.585653   0.27330492   -1.4996447 0.00044920709 
 6882000    1.4154886   -3.8468244   0.31340049   -1.5871271 0.00013132234 
 6883000   0.75591719   -3.7060669   0.47476297   -2.1919178 0.00026057244 
 6884000   0.77829294   -3.7133472   0.51227439     -2.13092 0.00031730474 
 6885000   0.88583358   -3.7057605   0.23024227   -2.2574971 -2.3115457e-05 
 6886000   0.69963588   -3.7440016   0.51415245   -2.2678498 -0.00036086828 
 6887000   0.64199856   -3.8820975   0.25416052   -2.7451889 0.00024305228 
 6888000   0.93715407   -3.9634308   0.65504554   -2.0197984 -0.00041818184 
 6889000    1.1432707   -3.2002854   0.48954536   -1.1387427 -7.4714618e-05 
 6890000   0.91215607   -4.0205634   0.37796209   -2.3883867 0.00017296592 
 6891000   0.69622025   -4.0375058   0.55030037   -2.5299026 5.8805115e-05 
 6892000    1.3237401   -4.1494046   0.37530338   -1.9539586 0.00032117611 
 6893000    1.0350196   -3.7325869   0.23736766   -2.0720673 0.00018353735 
 6894000   0.87975543   -4.1853643   0.67917206   -2.2965285 -0.00026864788 
 6895000    1.1213411   -3.7689848    0.4324615   -1.7946794 5.0242977e-05 
 6896000   0.76197904   -3.9631034   0.19393955   -2.7214427 0.00049281935 
 6897000   0.90174879   -4.1035904   0.71572634   -2.1479595 -7.4732375e-05 
 6898000    1.2089311   -4.1810551   0.74312143   -1.7756533 -0.00031720411 
 6899000   0.58673446    -4.200739   0.38553254   -3.0084466 3.1025736e-05 
 6900000    1.3770235   -4.0918839   0.36518651   -1.8332901 -6.496998e-05 
 6901000   0.71394505   -4.3037579    0.1330701   -3.1890134 -4.7091486e-05 
 6902000   0.71835641   -3.6499415   0.74569506   -1.9165064 -0.00058762299 
 6903000    1.0775044   -3.5447762   0.61983469   -1.4433729 -0.00023125603 
 6904000    1.1014628   -3.5252281   0.78027611   -1.2304406 -8.1223488e-05 
 6905000   0.94576912    -4.352578    0.6420785   -2.4100669 -7.4053018e-05 
 6906000   0.83780416   -3.4783819   0.65172391   -1.6746773 -0.00017990813 
 6907000    1.0265875   -3.8505118   0.50742631   -1.9315277 2.9536652e-05 
 6908000   0.55746517   -4.0012314   0.38309372   -2.8516231 1.8141919e-05 
 6909000   0.94798025   -4.2639533    0.6806301   -2.2798504 -0.00033041435 
 6910000   0.90787008   -4.1466264   0.53251837   -2.3657867 6.472158e-05 
 6911000    1.0740763   -4.0031955   0.46323886   -2.0631017 -8.1164658e-05 
 6912000   0.77060574   -3.8793506   0.72211106   -2.0976566 -0.00026631382 
 6913000   0.98026439   -4.1934987   0.35304819    -2.492587 0.00022707709 
 6914000    1.0185512   -4.1663202   0.25059644   -2.5152158 -0.00021761306 
 6915000   0.84981911   -4.0254703   0.51710506    -2.339864 -0.0002313772 
 6916000    1.1308729   -3.3202467   0.71141606   -1.0538803 -0.00014152486 
 6917000   0.84527954   -4.1568181   0.50735506   -2.4872037 0.00010497703 
 6918000   0.63114329    -3.895679   0.35140083   -2.6764562 0.00032244695 
 6919000    1.0015976   -3.5609903   0.44360349   -1.7401902 0.00045889258 
 6920000   0.98839091   -4.4426525   0.44044083   -2.6431742 8.6499556e-05 
 6921000    1.0057954   -3.8637961   0.50033862   -1.9804887 -9.7563039e-05 
 6922000    1.1702809   -3.8844871   0.29927464   -1.9760763 -0.00020199537 
 6923000   0.80726537   -3.7982043   0.24715133   -2.4410631 0.00026103278 
 6924000     1.048162   -4.0469242   0.25765529   -2.3480461 4.6782753e-05 
 6925000   0.84424983   -4.2079143   0.54310862   -2.5039622 0.00010587336 
 6926000   0.91321423   -4.3109752   0.25167501   -2.8036307 0.00020672551 
 6927000   0.98325996   -3.9750598   0.32689639   -2.2961809 -4.1867047e-05 
 6928000    1.6916599   -4.3843386   0.35775531   -1.7005509 2.6573353e-05 
 6929000    1.1231358   -3.8865463   0.75989117   -1.5823434 -6.2807737e-05 
 6930000   0.87075237   -4.0823799   0.31636374   -2.5687317 -0.00017391602 
 6931000    1.1435648   -3.9377463     0.375591   -1.9897536 -0.00026937828 
 6932000    0.8108488   -3.7373756   0.91664944    -1.705809 -0.00030674413 
 6933000    1.3136539   -4.0461967   0.50894531   -1.7309773 6.1949087e-05 
 6934000   0.42778613    -4.253314   0.30648387   -3.3586242 -6.2836067e-05 
 6935000   0.66722331   -3.6801445   0.30412321   -2.4585893 0.00024123895 
 6936000    1.1831306   -3.9718152   0.33750361   -2.0075069 0.00026193648 
 6937000   0.84186918   -4.0592648   0.35336417   -2.5483305 0.00016346551 
 6938000    1.1544321    -3.730342   0.89150184    -1.251496 -0.00028472993 
 6939000   0.92194027   -4.2938039   0.46914582   -2.5569902 -0.00026598709 
 6940000   0.87584414   -3.4407503   0.27258213   -1.9638825 -0.0001036875 
 6941000   0.95360416   -4.2405746   0.46412517   -2.4652437 0.00011893566 
 6942000    1.6098177   -3.5397654   0.47399892  -0.85226717 0.00035837176 
 6943000    1.1444088   -4.1528052   0.78082513   -1.7984179 8.8038733e-05 
 6944000   0.76256784   -4.0362443   0.55825511   -2.4294584 -0.00015888659 
 6945000    1.2896077   -2.9838941   0.69785301  -0.51283048 0.00047220383 
 6946000    1.2217412   -4.2502098   0.35959197   -2.2107238 0.00017207859 
 6947000   0.79237716   -4.2834573   0.34783211   -2.8461066 -0.00029208381 
 6948000    1.1449482   -4.0396926   0.56050911   -1.9048797 -0.0001349529 
 6949000   0.73258927   -4.2508614   0.13304084   -3.1105103 -2.3879061e-05 
 6950000   0.94246912   -4.0793817   0.29216181   -2.4913248 -0.00016712633 
 6951000   0.72686838     -4.11888   0.72392855   -2.3955075 0.00033486354 
 6952000   0.97660734   -3.8191751   0.56028587   -1.9160541 -0.00018799758 
 6953000    1.0633471   -4.1306849   0.52454002   -2.1440426 0.00020368351 
 6954000   0.73383604    -3.876441   0.54971181   -2.3177046 0.00017012114 
 6955000   0.88364827   -3.4392246   0.81185293   -1.4123553 6.7943946e-05 
 6956000   0.99016354   -3.8130172   0.56610467   -1.8854376 -0.0001431337 
 6957000   0.75586513   -4.0481101   0.48527514   -2.5235204 -0.00015930441 
 6958000   0.64644834   -3.5278297    0.6719328   -1.9670304 -0.00022897356 
 6959000   0.91783457   -3.9093264   0.38366842   -2.2636354 -0.00014727062 
 6960000   0.83034894    -4.303927    0.8052025   -2.3569947 -0.00046149026 
 6961000   0.96240942   -3.5996495   0.24601912   -2.0303174 0.00046279611 
 6962000    1.3961829   -4.1694328   0.69777139     -1.55191 -0.00028636213 
 6963000   0.84779852   -3.7033622   0.48874482   -2.0488944 0.0002631062 
 6964000    1.3873309   -4.0008856   0.43086947   -1.6624361 -0.0002102574 
 6965000     1.323844    -3.843751   0.53362268   -1.4898428 -9.7771988e-05 
 6966000     1.412513   -4.0313122   0.89315533   -1.1959516 0.00033170579 
 6967000    1.0270135   -4.2123557   0.71688767   -2.0833244 -0.00053068539 
 6968000    1.4340403   -4.2832674   0.48901041   -1.8224516 -3.0986908e-05 
 6969000   0.72656356    -4.229447   0.43346403    -2.796958 0.0001049026 
 6970000    1.2879414   -4.1402931   0.27777958   -2.0915941 -0.00011049339 
 6971000   0.84272907   -4.2544135   0.34707856   -2.7485825 7.2871188e-05 
 6972000    1.0823363     -3.66643   0.35500861    -1.823209 0.00027912736 
 6973000    1.0221776   -3.2239284   0.47359586   -1.3448383 -0.0001332425 
 6974000   0.80231322   -3.7292127   0.34400042   -2.2820316 -9.3634996e-05 
 6975000   0.92013163   -3.7283023   0.29711293   -2.1660084 0.00018115418 
 6976000   0.89323232   -4.1320334   0.86564784   -2.0381911 -3.4779304e-05 
 6977000    1.1706202   -4.0600664   0.40076525   -2.0496984 -3.9449201e-05 
 6978000    1.1589772   -4.0347891    0.2877049   -2.1534905 3.2940184e-05 
 6979000   0.95971444   -4.3497233   0.40497903   -2.6251369 0.00012020362 
 6980000    1.0888138   -4.2892312   0.58730185   -2.2048104 3.9710454e-05 
 6981000   0.84138328   -4.1702134   0.57561819   -2.4376932 -9.2915873e-05 
 6982000   0.97972586   -3.8403165   0.45841552   -2.0347779 -7.3611342e-05 
 6983000   0.99274492   -4.1335754   0.65333376   -2.1152174 -2.8865667e-05 
 6984000    1.2711501    -3.801795   0.31469974   -1.7392639 -0.00018176092 
 6985000   0.75929777   -3.5656768   0.39754708   -2.1240953 -0.00029638674 
 6986000   0.78819625   -3.9810488   0.50566835   -2.3916106 -0.00022276296 
 6987000    1.2930424   -4.0403283   0.59765687   -1.6647381 -8.0650258e-05 
 6988000    1.1945995    -3.248946   0.26123043   -1.3451413 0.00013169552 
 6989000   0.88347746   -3.5761555   0.26591557   -2.0954584 7.1333453e-05 
 6990000    1.0639234   -3.3274126   0.74971044   -1.1148076 -0.00012298045 
 6991000    1.0314476   -3.9341472   0.41577665   -2.1001301 0.00037398469 
 6992000   0.95729291    -3.905046   0.44601857   -2.1427497 0.00028564753 
 6993000    1.2095992   -3.9704561   0.37802488   -1.9292322 -7.4478269e-05 
 6994000     1.255481   -3.8591858   0.93182158   -1.2010779 -0.00042060425 
 6995000    1.3958196   -4.2031251   0.33793585   -1.9459373 -0.00023868679 
 6996000    1.4987579   -3.2263453   0.51447973  -0.65107348 0.00052190232 
 6997000    1.5657175   -4.4445242   0.28739759   -2.0042651 -6.9747119e-05 
 6998000    1.2477472   -3.7365945   0.91308814   -1.1078539 -0.00011722038 
 6999000    1.3662862      -3.9408   0.46348817   -1.5986684 0.00010008983 
 7000000   0.90622365   -4.0369418   0.76634284   -2.0245414 -0.00017706851 
 7001000   0.97170014    -3.734243   0.96621076   -1.4319445 -0.00041483167 
 7002000     0.744333   -4.0366693   0.58812437    -2.425087 -5.9109543e-05 
 7003000    1.1979449   -4.0797042   0.22718404   -2.2053459 0.00027886313 
 7004000    1.0246736   -4.1111238   0.38122312   -2.3209745 -0.00028485987 
 7005000   0.95915202   -3.8955947    0.5676974   -2.0090633 0.00019678723 
 7006000   0.86214726   -3.3041398   0.21252103   -1.9061663 5.8518658e-05 
 7007000    0.7185989   -4.2238975   0.34070073   -2.8951232 0.00026195414 
 7008000    1.1818251   -4.2832845   0.78980427   -1.8684707 -0.00010185163 
 7009000   0.69041238   -3.7685163   0.29173521   -2.5274641 8.7498067e-05 
 7010000   0.81939066   -3.6921647   0.58263175   -1.9828708 0.00018422424 
 7011000   0.73320773   -4.0715301   0.79795775   -2.2654118 -0.00041320038 
 7012000   0.95392033   -4.2546808   0.37980373   -2.5632366 0.00017566423 
 7013000   0.86757478   -4.0663527   0.61797088   -2.2554665 -0.00027229472 
 7014000   0.75119782   -3.7433661   0.29338669   -2.4170824 -0.00014789674 
 7015000     1.097105   -4.2066575   0.36125692   -2.3368812 -4.0190566e-05 
 7016000    1.0381854   -3.9885631   0.44131658   -2.1197416 5.3253072e-05 
 7017000    1.1161498   -3.6833636   0.29278729   -1.8558704 -4.4772339e-05 
 7018000   0.87005684   -3.0609027   0.59024796   -1.2743266 0.00054826413 
 7019000    1.0091196   -3.9988143   0.49649584   -2.1147791 0.00017043807 
 7020000   0.96788216   -3.3796493   0.73288131     -1.31593 0.00018201461 
 7021000    1.0301941   -4.0946591    0.6796807   -1.9984615 8.8633386e-05 
 7022000   0.68130936   -3.8040278   0.78689986   -2.0803276 0.00018126662 
 7023000   0.73506973   -3.7402539   0.48605611   -2.2434769 0.00011026788 
 7024000    1.1022887   -3.6835474   0.51354003   -1.6543604 5.5152192e-05 
 7025000    1.3824895   -4.0929162   0.30615261   -1.8858405 0.00043662026 
 7026000   0.75841065   -4.2681306   0.46916181   -2.7561541 -0.00022155925 
 7027000    1.1688934   -3.9784602   0.57835299   -1.7928788 -0.00039341732 
 7028000   0.74303132     -4.07704   0.37953304   -2.6758389 -1.9142024e-06 
 7029000    1.1839572    -4.256746   0.39707106   -2.2317337 4.1023217e-05 
 7030000   0.90613603   -4.3474725   0.56043955   -2.5410959 -0.00032945754 
 7031000    1.2405535   -4.0758128   0.84406723   -1.5259845 -0.00010097372 
 7032000    1.4313477   -4.2751547   0.19861974   -2.1084318 0.00037380552 
 7033000    1.2601573   -3.6607644   0.55205989   -1.3759883 0.00017315009 
 7034000   0.85046503   -3.6030252   0.58142907   -1.8522067 -0.00054120778 
 7035000   0.50560383   -3.7920884   0.53120698   -2.5656761 0.00046705885 
 7036000     1.125188   -4.1974912    0.3734218   -2.2769358 -0.0002814956 
 7037000    1.2423838   -3.8280476   0.63102043   -1.4887494 0.00020080462 
 7038000   0.94927124   -4.2823143   0.34268243   -2.6343839 -0.00026191055 
 7039000    1.2641849   -3.3406351   0.23510835   -1.3672725 0.00027422937 
 7040000   0.82021198   -3.8622788   0.60893936    -2.125548 -3.528452e-05 
 7041000   0.62694167   -4.4123577   0.20711542   -3.3431975 8.1036128e-06 
 7042000    1.2732147   -3.7648811   0.31168542   -1.7025255 -0.00017112587 
 7043000    1.2603268   -4.1630892   0.18241789   -2.2477219 8.3240536e-05 
 7044000    1.2211517   -4.0846781   0.47100585   -1.9345886 0.00012000799 
 7045000    1.4035322   -4.2249197   0.87269366   -1.4223693 -7.8054043e-05 
 7046000   0.93431922   -4.0599588   0.53150315   -2.2437667 -0.00017016526 
 7047000    1.1154703    -4.295267   0.38027866   -2.3812167 9.2313079e-05 
 7048000    1.1039552   -4.3251112   0.58917607   -2.2179967 3.4698747e-05 
 7049000   0.61793416   -3.5687547   0.20174156   -2.5173536 0.00010600623 
 7050000    1.0184949   -4.3881429   0.56115743    -2.426555 4.844844e-05 
 7051000    1.0204308   -4.2535421    1.1198217    -1.730628 -0.00026900485 
 7052000   0.60352507   -3.8168259   0.24186188    -2.745117 0.00046153143 
 7053000    1.3430738   -4.0446933    1.0102018    -1.187765 0.00021215277 
 7054000   0.90263718   -4.2188258   0.52047271   -2.4572269 -0.00043293388 
 7055000     1.401513   -3.4912625   0.45002215     -1.11416 -2.7961421e-05 
 7056000   0.74630611   -3.5550363   0.65008078   -1.8787846 -0.00013235755 
 7057000   0.50337799   -4.2482623   0.88183807   -2.6742795 -0.00030710959 
 7058000   0.69995272   -3.0263085   0.13423637   -1.9296372 0.00050282713 
 7059000   0.76305592   -3.9858628   0.61334147   -2.3233194 4.100674e-05 
 7060000    1.4939968   -4.1932681   0.31853094   -1.8204915 5.174253e-05 
 7061000   0.69193371   -3.9659499   0.27629074   -2.7382503 -9.9882878e-05 
 7062000    1.4475499   -4.2042666   0.50291404   -1.7109715 0.00014866034 
 7063000    0.6859753   -4.0695464   0.51626231    -2.610068 -0.00020999434 
 7064000   0.80501632   -3.9313284   0.33538947   -2.4890415 7.7266293e-05 
 7065000    1.3753961   -4.3017618   0.45967845   -1.9509137 -0.00016905206 
 7066000   0.73051921   -3.8318437   0.26208151   -2.5652983 0.00031771615 
 7067000   0.69702793   -4.4071917   0.40183408   -3.0469442 -0.00034855836 
 7068000   0.66879122   -3.7024844    0.5719774   -2.2109191 -0.00016993132 
 7069000    1.0443053   -3.9863781   0.89682466   -1.6536335 0.00014785809 
 7070000    1.0056574   -3.8250847    0.3789504   -2.0633553 -6.3261143e-05 
 7071000   0.73996906   -4.0147286   0.40733756   -2.5899336 0.00036989808 
 7072000   0.77396093   -3.5769782   0.70842905   -1.8043529 -4.1583705e-05 
 7073000   0.75365224   -4.4732885   0.69487661   -2.7421401 -0.00010103008 
 7074000    1.1025401   -4.2696065   0.75013332   -2.0034805 -2.8004454e-06 
 7075000   0.77060233   -4.3001353   0.56420552   -2.6763516 -0.00015426375 
 7076000     1.105034   -3.9691461   0.21262258   -2.2371017 -0.00010879749 
 7077000   0.93780627   -3.3476111   0.31738872   -1.7407387 0.0001694986 
 7078000   0.85413934   -4.2483673   0.45201974    -2.621906 -0.00023087468 
 7079000   0.65809187   -3.3151908   0.57969574   -1.8306187 -5.4082251e-05 
 7080000   0.83406022   -3.5173592   0.33699451   -2.0335319 0.00024637418 
 7081000   0.76975919   -4.1388584   0.48361657   -2.5968229 0.00013344378 
 7082000   0.97241623   -3.9184094   0.19640626   -2.3849308 0.00024275746 
 7083000     1.154681   -3.7873608   0.65545373   -1.5442207 -0.00016509941 
 7084000    1.0204561   -3.8013246   0.50364854   -1.8945488 0.00021760299 
 7085000    1.3135455   -3.4841285   0.84113288  -0.83687054 -0.00019263287 
 7086000   0.84367113   -3.6456756   0.36725689   -2.1183709 0.00028102942 
 7087000    1.1966735   -3.6377654   0.52358917   -1.4687502 0.00058182754 
 7088000    1.3198505   -4.2214252   0.80734781    -1.599283 0.00029530339 
 7089000    1.1015507   -4.1669261    0.7121614   -1.9401325 -0.0005774782 
 7090000   0.79021998   -3.2636047   0.35850851   -1.8185437 -0.00011322314 
 7091000    1.1549767    -4.165581   0.73421433   -1.8432738 0.00030780319 
 7092000   0.99822412   -4.0631212   0.64287379   -2.0476893 -3.9329902e-05 
 7093000   0.68969108   -3.9005546    1.1634119   -1.7888175 -5.292081e-05 
 7094000   0.56382396   -3.7036833   0.49981532     -2.42861 0.00018688973 
 7095000    1.3169655   -4.1375425   0.49547397   -1.8312409 0.00018501179 
 7096000   0.70783479   -3.7263077   0.34210105   -2.4109338 -0.00017052446 
 7097000   0.80994505   -3.4349082   0.50185206   -1.8193817 -6.2541802e-05 
 7098000   0.64318178   -3.6456086   0.21828954   -2.5429441 -4.5207506e-06 
 7099000   0.73350067   -3.6190042   0.58316294   -2.0272778 -3.6810249e-05 
 7100000   0.78965112   -3.0256914   0.12270232   -1.8172188 0.00018348377 
 7101000   0.84269761   -3.9866771   0.38813205   -2.4398359 -2.3467392e-05 
 7102000    1.2860859   -3.5905499   0.33229056   -1.4898912 9.0279084e-05 
 7103000   0.92720196   -4.1678259   0.29165451   -2.6012687 0.00033420041 
 7104000    1.2863363   -3.3249889   0.34380429   -1.2124722 -9.0797721e-05 
 7105000    1.2604486    -4.051006   0.71928459   -1.5986045 -8.3167738e-05 
 7106000   0.57644208   -3.5845549   0.64519421   -2.1467528 -0.0003132324 
 7107000   0.47622085   -4.0035487   0.42723601   -2.9215091 0.00023650879 
 7108000    1.0502119   -3.8776522   0.45418028   -1.9794306 -9.7414455e-05 
 7109000     1.210607   -3.7704501   0.35491531   -1.7509502 -0.00017920086 
 7110000   0.43692675   -3.4217325   0.23315095   -2.5878072 0.00010014908 
 7111000    1.2772979   -4.0912037   0.26907394   -2.0658452 -9.657071e-05 
 7112000    1.2491457   -3.9679992   0.60864636   -1.6417774 -4.1325754e-05 
 7113000    1.1414805   -4.0586374   0.38852245   -2.1005793 -9.3965729e-05 
 7114000    1.6938938   -3.6870375   0.30717861   -1.0507548 0.00078478118 
 7115000   0.79914368     -3.77443   0.37600558   -2.2996019 -0.00021013079 
 7116000    1.1618265   -4.0720627   0.57825943   -1.8962918 0.00013994391 
 7117000     1.088691   -3.4804488   0.70598121   -1.2775174 -0.00041060499 
 7118000   0.66142906    -4.296724   0.45631363   -2.9309454 -6.0995441e-05 
 7119000   0.86943213   -3.7257146   0.86783523   -1.6624102 -0.00023212656 
 7120000    1.0094885   -4.1536376   0.33614217   -2.4294487 0.00014812438 
 7121000   0.97353111   -4.0481056   0.54998318   -2.1595171 -0.00053832763 
 7122000   0.87484493   -3.4336186   0.76546826   -1.4652386 -0.00036519657 
 7123000    1.0239943   -3.6726849   0.35375254   -1.9109402 1.6090352e-05 
 7124000      1.37104   -3.7515643   0.65307803   -1.2133063 -0.00024317202 
 7125000   0.64832578   -3.6826501   0.49981141   -2.2913907 0.00017049748 
 7126000    1.0815154   -4.2089173   0.55611929   -2.1657143 -0.00012604544 
 7127000    1.0661474   -4.0835092   0.54741615   -2.0701403 0.00016284225 
 7128000    1.1953521   -3.6851129   0.60904487   -1.4324589 -4.8105625e-05 
 7129000   0.68207803   -3.5850524   0.50881546   -2.1383797 0.00016696291 
 7130000    0.9552755   -4.1800005    1.1212151   -1.7452816 -0.00024851751 
 7131000   0.97411718   -4.1780864    0.3830754   -2.4555999 -1.7091905e-05 
 7132000   0.91394256   -4.0544647   0.33559941   -2.4621942 0.00020350792 
 7133000    1.1045674   -4.0243266    1.1645399   -1.3410065 -0.00037107445 
 7134000    1.1196438   -4.2730895   0.47283448   -2.2607448 -1.3493716e-06 
 7135000   0.85205912   -3.8502923   0.34137976   -2.3373313 8.1941077e-07 
 7136000   0.91395221    -4.066695    0.5197818   -2.2902289 -0.00013508359 
 7137000    1.4853562   -4.1205566   0.39987624   -1.6783155 -0.00023503068 
 7138000   0.67262748   -4.2240318   0.33385164   -2.9653174 0.00010409495 
 7139000   0.93793754   -4.0733266   0.81520703   -1.9684555 -0.00022207579 
 7140000    0.8555647   -4.3959775   0.59890757   -2.6206685 -0.0001949865 
 7141000    1.0122161   -3.9912457   0.22369745   -2.3757511 -9.8815875e-05 
 7142000   0.64611304   -3.8766633   0.30797243   -2.6802854 -0.00012307131 
 7143000   0.97919759   -3.5756632   0.41024362   -1.8190228 0.00063630682 
 7144000    1.3935833   -3.8783253   0.35251515   -1.6096331 -0.00014710629 
 7145000    1.2209399   -4.1895162   0.46392067   -2.0468032 0.00031863614 
 7146000   0.70258645   -3.9854071   0.65904361   -2.3603071 -0.00023873681 
 7147000   0.78499222   -3.8832818   0.66976764   -2.1341499 -8.1589287e-05 
 7148000   0.73868439   -3.5070737   0.31040847   -2.1809742 0.00018170226 
 7149000   0.88054308   -3.9455509   0.09681644   -2.6379877 0.00018222581 
 7150000   0.83924554   -3.8652648   0.45850547   -2.2527967 0.00043834793 
 7151000    1.1329561    -4.437586   0.35633129   -2.5234401 -0.00017883948 
 7152000    1.0597167   -3.5859619   0.51380726   -1.6150442 -0.00040101538 
 7153000   0.98820279   -4.1788608   0.51314576   -2.3069362 -0.00022148683 
 7154000   0.70904616   -4.2689581   0.70865951   -2.5853601 -0.00019945373 
 7155000     1.258474    -4.295889   0.65651026    -1.908977 0.00020974556 
 7156000    1.2162063   -3.9407714   0.29544761   -1.9730401 -0.00036996575 
 7157000   0.82867468   -4.2036307   0.62370663   -2.4404964 -0.00024928508 
 7158000    0.8469371   -3.9500995   0.50424616   -2.2813148 0.00017266186 
 7159000   0.74316988   -4.4608417   0.27317981   -3.1658033 -8.291927e-05 
 7160000    1.1453154   -3.8122119    0.2967216   -1.9406816 3.9176302e-05 
 7161000   0.97355962   -4.2245937   0.50856383   -2.3773854 -0.00027740228 
 7162000    1.0681311   -3.9819466   0.30852301   -2.2047433 -0.00013740125 
 7163000   0.66842332   -4.1953372   0.35218973   -2.9240655 -0.00016754692 
 7164000    1.0103765   -3.6593352   0.71874594   -1.5513215 3.449832e-05 
 7165000    1.1873037    -3.930758   0.45479778   -1.8434176 6.1641714e-05 
 7166000      1.12734   -4.0157409   0.38239244   -2.0832559 -0.00034055777 
 7167000    1.3373085   -3.9981667   0.26303783   -1.8963296 -5.0120356e-05 
 7168000   0.92269494   -4.2691204   0.21458074   -2.7858342 -0.00019449489 
 7169000    1.0190942   -4.2508119   0.68147084   -2.1680865 0.0002474188 
 7170000   0.90186352   -4.2975013    0.1992912   -2.8581478 -1.4661891e-05 
 7171000    1.2000051   -3.7915901   0.22678975   -1.9147933 0.00010334165 
 7172000   0.78498463   -3.8712531   0.18404397   -2.6078552 -0.00012698077 
 7173000    1.0730507    -4.234727   0.38066784   -2.3786144 0.00022142646 
 7174000    1.4114724   -3.9866483   0.40693755   -1.6389362 -0.0001794156 
 7175000    1.1890022   -4.2461452   0.38832537   -2.2229418 0.00023629369 
 7176000   0.75545255   -4.1410848   0.34477848   -2.7575591 0.00028832676 
 7177000    0.9165236   -4.1146601   0.71926708   -2.1351731 -3.0044994e-05 
 7178000     1.034454     -3.78696   0.31620688    -2.048379 0.00014599769 
 7179000   0.94100979   -3.8967692   0.30094046   -2.3019403 3.4883488e-05 
 7180000   0.93531249   -4.0935575   0.32494584   -2.4825569 3.1126897e-06 
 7181000     0.820021   -4.2647083   0.22355222   -2.9136272 0.00036007711 
 7182000    1.1353057   -4.2319899   0.69860025   -1.9723442 -0.00013492963 
 7183000   0.84767284   -4.2846456   0.30583731   -2.8132581 0.00016672999 
 7184000   0.75811158   -4.2424883   0.41924082    -2.780844 -0.00021861431 
 7185000    0.7442253   -3.9657027   0.24379537   -2.6985976 -0.00026499639 
 7186000   0.69453706   -4.3687494   0.28601243   -3.1277485 4.2713046e-05 
 7187000    1.2354811   -4.0946495   0.50784491   -1.8880181 -8.5944595e-05 
 7188000   0.97920463   -4.0709317   0.40029601   -2.3242293 -9.1591583e-05 
 7189000   0.47072689   -4.0087628   0.37318426    -2.988329 0.00014183238 
 7190000    1.1937705   -4.0065768   0.30718226   -2.0579602 0.00028385655 
 7191000    1.2360292   -3.4635805   0.30146617   -1.4625742 9.5659982e-06 
 7192000   0.93325986   -3.9233805   0.45225989   -2.1878883 -9.9581624e-05 
 7193000   0.55380674   -4.2129183   0.48464175   -2.9667923 6.1068776e-05 
 7194000   0.76951359   -3.7101887    0.6288155    -2.023292 0.00010554435 
 7195000   0.91304053   -4.2917392   0.30653741    -2.729771 1.0786994e-05 
 7196000   0.76082235   -3.8710955   0.34429627   -2.4806685 -0.00019130528 
 7197000   0.74334592   -4.1616729   0.19346488   -2.9461074 0.00043356995 
 7198000    1.0672879   -3.7330543   0.54946234   -1.7160712 -0.00021927351 
 7199000    1.0850841   -4.0546824   0.32172222   -2.2409695 -4.3119176e-05 
 7200000   0.66947714   -4.3936358   0.37812148   -3.0949832 2.5729103e-05 
 7201000   0.80303958   -4.1358038    0.2076435   -2.8239809 7.0959452e-05 
 7202000    1.1740365   -4.1248683   0.19571962   -2.3148485 -0.00016825307 
 7203000   0.97245709   -3.8970653   0.54980125   -2.0101355 -0.00040795527 
 7204000    1.2018909   -3.3963692   0.17641177   -1.5673575 1.2593798e-05 
 7205000     1.019548   -3.8955583   0.20650744   -2.2871724 0.00018521312 
 7206000   0.79763645   -4.2788221   0.49975672   -2.6823153 0.00033163836 
 7207000   0.70038441   -4.3466507   0.37362352   -3.0099986 -0.00019323972 
 7208000    1.3274611   -4.4355644    0.2635586   -2.3467467 9.224601e-05 
 7209000    1.1810028   -4.0414713  0.097327159   -2.3202653 0.00036556623 
 7210000    1.1800649    -4.229404   0.24937357   -2.3574413 0.00014067061 
 7211000   0.94455832   -4.4159691   0.15909122   -2.9581102 -8.2215407e-06 
 7212000    1.1934025   -4.2248166   0.22696367   -2.3569244 -0.00023630845 
 7213000    1.5396832   -3.7322089   0.35245618   -1.2626883 0.00028444035 
 7214000   0.84908754   -3.8375494   0.57596303    -2.094091 -0.00035605512 
 7215000   0.54595717   -4.3354742   0.19771856   -3.3870646 6.9106481e-05 
 7216000   0.98218901    -3.989413   0.54291353   -2.0959896 -0.00030053925 
 7217000   0.84325398   -3.8192169   0.40639635   -2.2533463 -0.00038879388 
 7218000     0.806056   -4.2583031   0.79231229   -2.3576639 -4.1696322e-05 
 7219000   0.75711628   -4.1787481      0.29068   -2.8470332 -0.00013657366 
 7220000   0.57611397   -4.2725847   0.61746451   -2.8629635 -0.00019392097 
 7221000   0.82273056   -4.2110116   0.15643468   -2.9233224 0.00018814045 
 7222000    1.5334092   -4.3593493   0.46027932   -1.7906322 5.7885417e-07 
 7223000    1.1995609   -4.0197315   0.26780013   -2.1025352 0.00026753533 
 7224000    1.2158878   -4.0606366    0.3638027   -2.0249882 -0.0001070448 
 7225000   0.77461743   -4.4575022   0.32795061   -3.0644526 -0.00010145756 
 7226000   0.84049041   -4.1503775   0.77740045   -2.2173028 -0.0001378295 
 7227000    1.3006002   -3.8774164   0.46602357   -1.6230675 0.00049655229 
 7228000    1.1206106   -4.2111283   0.30642196   -2.3638667 5.323547e-05 
 7229000   0.79883691   -4.2455667   0.42361733   -2.7235486 -0.0001715505 
 7230000    1.0230137   -3.9306627   0.16693225   -2.3570865 -0.00020905572 
 7231000      1.07917   -4.2101192    0.1709642   -2.5552964 4.9750736e-05 
 7232000    1.4190848   -4.1578882   0.40345447   -1.8031921 9.5267297e-05 
 7233000   0.81910544   -4.0307871   0.70697237   -2.1975447 -0.00046863294 
 7234000   0.86076374   -4.1206872   0.35323397   -2.5839031 -0.00037516227 
 7235000    1.2305273   -4.0791887   0.20880666   -2.1784071 3.1136824e-05 
 7236000    1.3233714   -4.2354547   0.18093056   -2.2348885 -0.00010577113 
 7237000     1.389968    -4.243305   0.21195569   -2.1201433 -0.00015227651 
 7238000    1.1633147   -4.1448837   0.28471156   -2.2606144 4.849472e-06 
 7239000    1.2793155   -4.0716937   0.77354948   -1.5390854 4.141656e-05 
 7240000   0.87014986    -3.788588   0.30712739   -2.2850046 0.00024342381 
 7241000   0.92236156   -3.7254946   0.23420174   -2.2230457 0.00021289131 
 7242000   0.88868572   -4.0579235      0.37484   -2.4611407 4.5260661e-05 
 7243000    1.1064319   -4.2551448   0.38688158   -2.3469193 -6.3073674e-05 
 7244000    1.3708369   -3.7267776   0.64185403   -1.2000229 -0.00013197869 
 7245000   0.82686398   -3.8499195    0.1901298   -2.5228518 -8.8874219e-05 
 7246000   0.97926632   -3.1943522   0.34510492   -1.5027561 7.3085623e-05 
 7247000    1.1465981   -3.9225415   0.57712933   -1.7688398 0.00021110177 
 7248000   0.76076293   -4.3246119   0.20689961   -3.0716633 0.00024590682 
 7249000    1.1660034   -4.0615499   0.61285336   -1.8454418 0.00015963083 
 7250000   0.61556661   -4.1701588   0.43286374   -2.8908909 -7.3961012e-05 
 7251000    1.0649737   -4.0071606   0.48398892   -2.0588329 0.00019785875 
 7252000   0.46194172   -4.0510103   0.31891101   -3.0969294 4.5894294e-05 
 7253000    1.0528416   -3.7898556   0.19789613   -2.1443022 0.00051702967 
 7254000    1.3268541   -3.9978111   0.80704933   -1.3663375 -0.00026814447 
 7255000    1.2714683   -3.8661823   0.34492847   -1.7729849 0.0008628954 
 7256000   0.94869874   -4.3300166   0.33460188    -2.690954 -3.8608974e-05 
 7257000   0.60694261   -3.8156298   0.58194034   -2.3991434 -0.00014878403 
 7258000    1.0039391   -4.0437644   0.19731204    -2.466036 5.4791782e-05 
 7259000    1.4674841   -3.0191031   0.28073754  -0.72057483 -4.6491435e-05 
 7260000    1.2051681   -4.2685073   0.76486958   -1.8465316 -0.00018399258 
 7261000    1.4595856   -3.7962165   0.52368546   -1.2656008 0.00020542054 
 7262000    1.1489531   -3.9535564   0.24254282   -2.1312031 6.3723291e-05 
 7263000    1.0211902   -4.0366575   0.32944821   -2.3030728 -0.00014335567 
 7264000    1.5112489   -3.7789441   0.37235915   -1.3286177 0.00022364678 
 7265000   0.62209288   -4.1447872    0.5528147   -2.7365948 -0.00016333996 
 7266000   0.92250956   -4.2809062   0.56741732   -2.4450383 0.00033452626 
 7267000   0.90366727   -3.9367998   0.52321504   -2.1710423 0.00041280807 
 7268000    1.3465473   -3.7470465   0.49253167   -1.4030123 -0.00015097418 
 7269000   0.69918873     -3.74495   0.37738291   -2.4061826 -0.00013609156 
 7270000   0.98140976   -3.4726925   0.31076208    -1.812492 -0.00018093758 
 7271000    1.0726678   -4.1772125    0.2849208   -2.4173735 4.7917858e-05 
 7272000   0.93692293   -4.2454531    0.5336765   -2.4235076 0.00019310947 
 7273000    1.0065303   -4.1680621   0.47274519   -2.3113377 0.00023591817 
 7274000    1.0480138   -4.3164963   0.37289528   -2.5025821 0.00034276204 
 7275000    1.2810408   -3.9290123   0.47237916   -1.6952021 -2.7594918e-05 
 7276000   0.78273133   -4.3624518   0.50327075   -2.7829254 -0.00036236062 
 7277000   0.79622777    -3.514978   0.43678203   -1.9833828 -0.00025880164 
 7278000    1.0898823   -3.9396681   0.50132328   -1.9397567 -8.0295643e-05 
 7279000    1.0329976   -4.1856061   0.33876139    -2.426473 -0.00012338416 
 7280000   0.77256744    -3.813931   0.35245204   -2.3991987 0.00038328159 
 7281000    1.2581064   -3.6555049   0.32226529   -1.6033434 8.4444296e-05 
 7282000   0.68993221   -4.1642496    0.5307668    -2.684826 -5.6289382e-06 
 7283000    1.0694357   -3.9217525   0.75866685   -1.6926117 0.00011023031 
 7284000    1.2905876   -4.2858599   0.62869145   -1.8826105 6.843251e-05 
 7285000    1.0114625   -4.3528696    0.8969057   -2.0652029 -6.7482142e-05 
 7286000    0.6387569   -4.4374751    0.4063109   -3.1528734 -0.00020249767 
 7287000   0.94524844   -4.5506352   0.90389978   -2.3470188 -0.00040012378 
 7288000   0.84072542   -3.5057809   0.79350336   -1.5562801 0.00014101559 
 7289000    1.0570521   -4.1533178   0.34352087   -2.3563504 -0.00035742364 
 7290000   0.73277224   -4.0296241   0.57817503   -2.4438872 -0.00030242242 
 7291000    1.5844354   -4.0184609   0.43974898   -1.4001133 8.1997341e-05 
 7292000    1.1551526   -3.9502825   0.27976612   -2.0821816 5.3123001e-05 
 7293000    1.0748325   -4.0415938   0.32315218    -2.240547 -0.00016322729 
 7294000   0.52419883   -3.9459083   0.21968874   -3.0054461 9.7048609e-05 
 7295000    1.0161928    -4.397165   0.65209781   -2.3478022 9.2294129e-05 
 7296000    0.8509189   -3.9391156   0.17372579   -2.5953763 4.8743335e-05 
 7297000    1.2883433   -4.2971318   0.43034249   -2.0953173 -0.00018291341 
 7298000   0.96561194   -4.1686766   0.71956243   -2.1213977 -0.00021784589 
 7299000   0.65343848   -3.6441576   0.23213854   -2.5135412 5.7025911e-07 
 7300000    1.5122423   -4.1836124   0.61588014   -1.4883991 9.9762097e-05 
 7301000   0.90065791   -3.8462252   0.42189493   -2.1859257  -1.4857e-05 
 7302000   0.70793016   -3.6620082   0.24444252   -2.4441617 -0.00011013019 
 7303000   0.80638976   -3.8725704   0.49466543    -2.269119 -0.00025216761 
 7304000    1.1282829   -3.9264554   0.47201852   -1.9030478 -7.0184725e-05 
 7305000   0.89401118   -4.4689753   0.28913158   -2.9505783 -0.00022975826 
 7306000   0.81729585   -3.9645637   0.66866889    -2.172113 0.0001298493 
 7307000    1.4770207   -4.1964715   0.32687089   -1.8386972 -0.00020741086 
 7308000    1.0844576   -4.3566779   0.60868736   -2.2568614 7.9804251e-05 
 7309000   0.83170193   -3.9277113   0.39256579   -2.3915553 -0.00029532576 
 7310000    1.2642195    -4.339165   0.33249933   -2.2683639 -8.4683666e-05 
 7311000    1.0769639   -4.4150108   0.96657024   -1.9676153 -0.00018077531 
 7312000   0.99890692    -4.344014   0.53981709   -2.4306999 0.00014664207 
 7313000   0.60117156   -4.2608372   0.54867694   -2.8855494 -0.00023958862 
 7314000    1.1685842   -4.2001235   0.39747488   -2.1958453 0.00046169235 
 7315000    1.0766472   -4.3356852   0.50505898   -2.3502363 -6.6470755e-05 
 7316000   0.93176412   -4.0999145    0.3072984   -2.5114404 0.00033015897 
 7317000   0.75698499   -4.1286466   0.32958661   -2.7582057 -0.00012236383 
 7318000   0.90537234   -4.1358089   0.14601568   -2.7449063 0.00022244878 
 7319000   0.77491006   -4.2388031   0.71849616   -2.4548056 -0.00036387651 
 7320000    1.3702327    -3.675168   0.24674688   -1.5443512 -5.3613998e-05 
 7321000    1.2161648   -4.3289388   0.22221879   -2.4344935 0.00023218881 
 7322000    1.0581279   -4.3778135   0.96984496   -1.9530426 -0.00028527217 
 7323000    1.3753341   -3.9501979   0.33754255   -1.7215709 -0.0001262683 
 7324000   0.57813561   -4.1786669   0.42893762   -2.9547928 -6.8750873e-05 
 7325000   0.87706781   -3.9410068   0.89985316   -1.8351854 -0.00048492548 
 7326000    1.5068762   -3.8546737   0.55881464   -1.2239044 0.00010486026 
 7327000    1.1380782   -4.3162013   0.37791099   -2.3734327 -0.00011792521 
 7328000    1.4499958   -4.0585282   0.41518187   -1.6496021  0.000123037 
 7329000    1.1382441   -4.2654155   0.18333906   -2.5169908 1.1396323e-06 
 7330000    1.0089391   -3.9908779   0.50890701   -2.0946796 2.290533e-05 
 7331000   0.92420309   -4.0807296   0.55091285   -2.2590375 9.709402e-05 
 7332000    1.2809562   -4.0512672   0.83829509   -1.4516573 -0.00027098978 
 7333000   0.88801187   -3.6305419   0.54349843   -1.8660271 -0.00026996361 
 7334000    0.7983155   -3.8339767   0.63818351   -2.0981094 0.00031145007 
 7335000   0.88857518   -4.1814305   0.16692905   -2.7927106 5.7712306e-05 
 7336000    1.0841744   -3.8673241    0.3656661   -2.0109182 -0.00015492933 
 7337000   0.87301771   -4.0235352   0.40869484    -2.414441 0.00025778733 
 7338000    1.2300499    -4.307749    0.1835711   -2.4328593 0.00023734264 
 7339000    1.1102354   -3.5539946   0.43181741   -1.5956035 -0.0002818718 
 7340000   0.82959625   -3.7883566    0.2862522   -2.3614096 0.00013532745 
 7341000    1.3786551   -3.1808697   0.49316616  -0.79205286 -4.0825529e-05 
 7342000    1.0041019   -4.0109506   0.28079591   -2.3495145 -2.773227e-05 
 7343000    1.0014552   -4.3249036   0.44692464    -2.500978 -0.00029575196 
 7344000   0.77160174   -4.1194589   0.34148533   -2.7170212 -0.0002504501 
 7345000    1.1976094   -4.0096687    0.4810949   -1.8818609 0.00019215465 
 7346000    1.3750328   -3.7302773   0.66868109   -1.1709261 -0.00031318156 
 7347000   0.83250433   -4.4912277   0.76452075   -2.5820134 -0.00043899302 
 7348000   0.67141086   -4.3149279   0.57781269   -2.8139253 1.7371739e-05 
 7349000    1.2273523   -4.0849984   0.39714181   -2.0002472 0.00013203803 
 7350000   0.75256188   -3.9929373   0.34898939   -2.6091754 -2.4590866e-05 
 7351000    1.0752228   -3.5706526    0.3449579   -1.7472634 0.00027994012 
 7352000   0.57714149   -3.8393046   0.20145972   -2.8442754 0.00019658284 
 7353000    1.4107677   -4.4421113   0.55283334   -1.9494724 0.00011091441 
 7354000    2.3049701   -4.2044564   0.45858892  -0.57653361 0.00027724299 
 7355000   0.58127648   -3.8457827   0.46177998   -2.5847475 -0.00029028969 
 7356000    1.2335649   -3.7197172   0.57080975   -1.4527557 0.00038446912 
 7357000   0.55222338   -4.1514881   0.79058109   -2.6015998 -0.00035685697 
 7358000    1.1952958   -4.1965182   0.39884512   -2.1541413 0.00027271149 
 7359000    1.0577293   -3.7091943   0.59426443   -1.6605521 -7.0076046e-05 
 7360000   0.76576652   -4.3360734   0.26138584   -3.0217586 -0.00012053152 
 7361000    1.0276973   -3.8317026   0.58552455   -1.8330943 0.00048681362 
 7362000   0.80009954   -3.7469423   0.35689975   -2.2899057 -0.00014043246 
 7363000    1.0399994   -4.1897062   0.36525091   -2.3944562 4.3877487e-05 
 7364000    1.0497267   -4.0438272   0.38284572   -2.2176073 -0.00022842568 
 7365000   0.83011984    -3.619285   0.30501839   -2.1728519 6.8246242e-05 
 7366000    1.0425709   -3.9568403   0.74721868   -1.7760867 -0.00046874114 
 7367000   0.56899367   -4.4021481   0.46182583   -3.1579559 9.4671423e-06 
 7368000   0.63462546   -3.6987756   0.79762401   -2.0285416 0.00013866299 
 7369000    0.7012523   -3.9356425   0.15672325   -2.8146974 0.00025297973 
 7370000     0.902289   -4.0084071   0.55847575   -2.2092839 -0.0002246065 
 7371000    1.0213138   -4.3683758   0.43730662   -2.5267627 0.00045413599 
 7372000   0.96850556   -4.0446243   0.50332443   -2.2096047 0.00023139902 
 7373000    1.2265177   -3.9463839   0.58256795   -1.6773541 -0.00017125643 
 7374000    1.2280728   -4.1415836    1.1004781   -1.3525055 0.00013189497 
 7375000   0.86817879   -4.1282749   0.34703131   -2.5874978 9.5989649e-05 
 7376000   0.91851954   -4.0510803    0.2183576   -2.5697583 0.00032802559 
 7377000   0.90686681   -3.8659622    0.2705277   -2.3484927 -0.00030536407 
 7378000   0.80798918   -3.9816341   0.42616943   -2.4444796 0.00016086289 
 7379000    1.0251271   -3.7563167   0.46734326   -1.8794237 -0.0001995347 
 7380000   0.94096832   -3.7140664   0.33603941   -2.0841955 -1.5606967e-05 
 7381000   0.65270176   -4.3100288   0.30006413   -3.1124998 3.3502167e-05 
 7382000    1.0132058   -3.5350171   0.43655865   -1.7053004 0.00032231955 
 7383000   0.86957514   -4.2550616   0.20081887   -2.8585769 0.00033255074 
 7384000    1.1110864   -3.6281118   0.29972884   -1.8006393 0.00026594596 
 7385000   0.84426085   -3.7659533   0.16197783   -2.4431168 7.6986827e-05 
 7386000    1.4624245   -3.9288273    0.6231962   -1.2947974 -0.00056326001 
 7387000   0.79057843   -3.9854545   0.40754583   -2.4908633 7.4857803e-05 
 7388000    1.2139903   -4.0844499   0.23589251   -2.1793207 4.4107348e-06 
 7389000    1.0336788   -3.9365393   0.40770474   -2.1075261 0.00020662356 
 7390000    1.4998124   -3.9817475   0.42504166   -1.4944638 0.0003317905 
 7391000   0.74118947   -2.9703316   0.77306294   -1.1781331 -0.00010920651 
 7392000    1.3235284    -4.361189   0.75732667   -1.7840109 -0.00023252795 
 7393000   0.76733311   -3.8863629   0.38349769   -2.4477822 -0.0002477257 
 7394000   0.72314688   -3.9570864   0.46929283   -2.4934666 0.00034204526 
 7395000   0.55691671   -4.0897535   0.53206031   -2.7919327 -0.00029113883 
 7396000   0.92970947   -3.8995572   0.66523361   -1.9559731 -0.00018356241 
 7397000    1.2217852   -4.4143293   0.54874226   -2.1856324 1.1168042e-05 
 7398000    1.3349111   -3.4014682   0.30871902   -1.2572465 6.0053107e-06 
 7399000   0.79610966   -4.0586654   0.67036777   -2.2936469 1.0625401e-05 
 7400000    1.5984391   -4.0172286   0.65598705   -1.1633878 -0.0004873119 
 7401000   0.87038372   -3.9999205   0.98278834   -1.8203545 0.00010946849 
 7402000   0.65204875   -3.6054544   0.26028117   -2.4486062 -1.8384267e-05 
 7403000    0.8014686   -4.2628719   0.62615983   -2.5346928 -9.3594674e-05 
 7404000     1.185787   -3.8468121   0.55580266   -1.6605523 0.00025318655 
 7405000    1.0127741   -3.9825415   0.32157498   -2.2684021 7.0935995e-05 
 7406000   0.95336045   -4.2360218   0.40258199   -2.5225692 -0.00026866844 
 7407000    1.0579728   -3.5614732   0.55173192   -1.5550287 -0.00015907414 
 7408000    1.6111233    -3.956959   0.85332656  -0.88833798 -1.5289738e-05 
 7409000   0.75796262   -4.4279454   0.49645974   -2.8892871 -0.00030183023 
 7410000    0.9039391   -4.1741161   0.39820077   -2.5329991 1.2575226e-06 
 7411000    1.0482579   -3.9854673   0.40191903   -2.1421937 -4.645422e-05 
 7412000   0.56752014   -4.0945145   0.31703759   -2.9971367 -0.00025081351 
 7413000   0.90159445   -3.6244507    0.3501773    -2.034581 -3.4297483e-05 
 7414000    1.2085915   -3.9485043   0.26464176   -2.0220493 8.6556311e-05 
 7415000   0.85445901   -4.3215423   0.18642472   -2.9602364 0.00014280463 
 7416000   0.84148313   -4.1962567   0.49608577   -2.5431316 -8.1657472e-05 
 7417000   0.77591539     -3.38543   0.34322798   -1.9753183 0.00031776015 
 7418000   0.76254024   -3.7931045   0.27044556   -2.4741661 0.0005179906 
 7419000   0.77501825   -4.1627175   0.28627921   -2.8107882 -5.7846257e-05 
 7420000     1.310831    -4.022823   0.47581661   -1.7446138 -0.0001878211 
 7421000    1.5416297   -3.5763796   0.39011328   -1.0665254 7.2864551e-05 
 7422000   0.97047418   -4.1657097   0.33304887   -2.4982589 0.00051042552 
 7423000    1.1420457   -4.0552603   0.35826136   -2.1266862 0.0003347368 
 7424000    1.2560737   -4.1870547   0.62280779   -1.8371457 -3.5452837e-05 
 7425000     1.189122   -4.0132266    0.3775695   -2.0006144 -3.8847901e-05 
 7426000   0.77671764   -4.3917391   0.46568239     -2.85807 -0.00012580871 
 7427000    1.1232977    -3.910547   0.16911794   -2.1968947 0.00017350818 
 7428000    1.1802708   -3.0875242   0.41363975   -1.0510122 0.00026619933 
 7429000    1.2013277   -3.7867456   0.22277554   -1.9121444 0.00021355942 
 7430000    0.7133274   -3.3669479   0.28826055   -2.0978622 5.0377262e-05 
 7431000    1.2310277    -4.042109   0.40304038   -1.9464056 -0.00024282668 
 7432000   0.87762018   -3.8840579   0.25159744   -2.4257327 -0.0001031361 
 7433000   0.88793648   -4.2522928   0.57018698   -2.4611932 -0.00046683438 
 7434000   0.85500017   -2.9596935    0.5205315   -1.2635368 0.00035562315 
 7435000    1.0814763   -3.9777707   0.30268442   -2.1880564 -0.00037361443 
 7436000   0.85905879   -4.2101102   0.46699175   -2.5619126 -0.00023696155 
 7437000   0.89571105   -4.0037136   0.59214972   -2.1799611 1.0331302e-05 
 7438000    1.5265533   -2.9223009   0.65200894   -0.1712812 0.00012989402 
 7439000   0.99131416   -3.7733182    0.3254477   -2.0848135 -6.3978993e-05 
 7440000   0.76774597    -3.615388   0.34128133    -2.218456 0.00044222214 
 7441000    1.2450891   -3.9511767   0.28388123   -1.9552981 -0.00017853989 
 7442000   0.76667816   -3.4119302   0.49171194   -1.8660358 0.00028503154 
 7443000   0.56394857   -4.0284708    0.5309267   -2.7221148 -2.4052356e-05 
 7444000    1.0910303   -3.5388674   0.31824648   -1.7204542 0.00031348116 
 7445000   0.72428768   -4.2508852   0.18971686   -3.0652728 0.00018894838 
 7446000      1.13964   -3.4452259   0.41106874   -1.4671522 -0.00014618147 
 7447000   0.69562252    -3.878452   0.49397028   -2.4280007 0.00036844746 
 7448000   0.73569727   -3.4496063   0.27794322   -2.1600793 -0.00021044749 
 7449000    1.5682979   -3.9837469    0.5172548   -1.3100826 -0.00040984212 
 7450000    0.9235415   -3.9778052   0.34001818   -2.3679175 -9.1550352e-05 
 7451000    1.2056722   -3.7209093   0.23990149   -1.8232085 -9.4370359e-05 
 7452000   0.74857557   -4.0999772   0.64375889   -2.4269269 -0.00040227691 
 7453000     1.452476   -3.9866836   0.74023445   -1.2492946 0.00021589753 
 7454000    1.0055819   -3.7367511   0.33955513   -2.0145209 -0.00018681617 
 7455000   0.90981679   -3.7421771   0.49964041   -1.9915386 -0.00019006828 
 7456000   0.84113766   -4.0043171   0.19238054   -2.6553723 0.00011076286 
 7457000    1.1804028   -3.7653529   0.48890447   -1.6533947 0.00040960621 
 7458000    0.9253675   -4.2950258   0.65340782   -2.3692377 -0.00019401145 
 7459000    1.8552929   -3.7390856   0.23811824  -0.94993967 0.00023003738 
 7460000    1.3019335   -4.2083809   0.48821646   -1.9300058 7.0393456e-05 
 7461000    0.9434578   -4.0955747   0.86431889   -1.9340013 -0.00034457075 
 7462000    1.0564094   -4.2231984   0.65039733   -2.1202382 4.049789e-05 
 7463000     1.207876   -3.8932719   0.31588532   -1.9165571 0.00016696848 
 7464000    1.3028359   -3.7958787    0.6811816   -1.3232976 -8.8593574e-05 
 7465000   0.97690029   -3.7873192   0.16845719   -2.2756241 -9.9399117e-05 
 7466000   0.87818762   -3.9548626   0.16848006   -2.5788746 8.1914023e-05 
 7467000    0.7368823   -3.8155708   0.40204239   -2.4003153 -0.00034697706 
 7468000    1.1215231   -4.2937827   0.47294239   -2.2787461 9.3278795e-06 
 7469000    1.4800696   -4.2145595   0.39745288    -1.782011 -0.00023375806 
 7470000     1.215485   -4.2984028    0.5123212   -2.1147897 -0.00020796161 
 7471000   0.72438227   -3.5127166   0.44653878   -2.0701522 0.00018639034 
 7472000    1.0991862    -3.557025   0.31614884   -1.7294951 6.5221423e-05 
 7473000    1.1742749   -3.9719472   0.57224211   -1.7850772 -0.00021893639 
 7474000   0.92835014   -4.1296196   0.57587893   -2.2772593 -0.0001898391 
 7475000    1.2808946     -3.95931   0.40730475   -1.7907751 -0.00012426286 
 7476000      1.36872   -3.6993254   0.68828747   -1.1290479 -8.326802e-06 
 7477000   0.70592681   -3.7436418   0.26540166   -2.5075908 6.1827487e-05 
 7478000   0.66828829   -3.6293561  0.092432185   -2.6180276 -0.00017992262 
 7479000    1.3183352    -4.347728   0.24643984   -2.2885773 -0.00025698046 
 7480000    1.2965103   -4.1323513   0.33012249   -2.0195273 0.00019972577 
 7481000   0.86920933   -3.9618478   0.41678368   -2.3499013 -0.00011646368 
 7482000    1.0652108   -3.5968287   0.37389198   -1.7582719 -8.4750134e-05 
 7483000   0.53056402   -3.6603857   0.47567503   -2.4551851 -6.3109223e-05 
 7484000    1.0157041   -4.0784884   0.48966734   -2.1922279 -0.00023450858 
 7485000    1.1668254   -3.8712135   0.56040879   -1.7064197 0.00018949964 
 7486000   0.96854567   -4.3805431   0.60186961   -2.4469232 -0.00024226201 
 7487000   0.75929056   -3.7830856   0.49192737   -2.2471338 0.00017229187 
 7488000   0.94421269   -3.7416534   0.65574339   -1.7876175 -0.00014424155 
 7489000    1.4181332   -3.7975784   0.60685772   -1.2407875 -0.00017921842 
 7490000   0.99885136   -4.0747747   0.24525758   -2.4560965 0.00033083795 
 7491000    1.0293409   -3.8452047      0.33454   -2.0953209 0.0003915037 
 7492000    1.4709583   -3.9341113   0.35859871   -1.5529449 0.00019210579 
 7493000   0.92595975   -3.7272801   0.40962707   -2.0444584 -4.1719024e-05 
 7494000    1.1881614   -4.0283695   0.37091317   -2.0237344 -0.0001749061 
 7495000   0.59249575   -3.5775607    0.1635178   -2.5993613 9.3821395e-05 
 7496000    1.0464862   -4.1395541   0.52815048   -2.1724852 -0.00015151751 
 7497000    1.4814534    -4.151198   0.43392343   -1.6802762 2.7261535e-05 
 7498000    0.4973008   -3.9803382   0.20470608   -3.0918436 0.00034939006 
 7499000    1.1006822   -3.9258156   0.43833379   -1.9740438 0.00044565814 
 7500000   0.80437931   -3.9144313   0.48925906   -2.3191507 0.00047893525 
 7501000    0.9315023   -3.7912649   0.21310931   -2.2973399 9.7638015e-05 
 7502000     1.168392   -4.1645726   0.70160881   -1.8564247 -0.00025715807 
 7503000    1.0599166   -3.8765388   0.26410335   -2.1550502 4.4262922e-05 
 7504000    1.0138752   -3.9610565   0.47121771   -2.0957603 -6.2271521e-05 
 7505000    0.6669251   -4.2189534   0.23759344   -3.0643379 4.7599153e-06 
 7506000    1.2015322   -4.0652651   0.48764306   -1.9255152 -7.3240349e-05 
 7507000    1.0793056   -3.2247195   0.75675238   -0.9839219 0.00016174235 
 7508000    1.1339007   -3.6853917   0.47343046   -1.6528478 0.00023808144 
 7509000   0.84507055   -4.1830478   0.29247196   -2.7286039 6.5418945e-05 
 7510000     1.180604   -4.1095644   0.41456603   -2.0716678 0.0001142547 
 7511000    1.2977724   -4.3633318   0.83389913   -1.7449956 -0.00011034436 
 7512000    1.5012285   -3.9634254   0.75493493   -1.1443013 -0.00011309171 
 7513000    1.2702638   -4.3971773   0.55033787   -2.1002267 0.00013194948 
 7514000   0.66347766   -3.9396541   0.17616817   -2.8512042 -0.00022646829 
 7515000     1.040457   -4.4139593   0.93560858   -2.0477223 -0.00014634643 
 7516000   0.79847166   -3.9305714   0.82664085   -2.0060321 0.0002659874 
 7517000    1.0623588   -4.1076335   0.23537243   -2.4115178 0.00037943868 
 7518000   0.74860097   -3.2366812   0.56282576   -1.6445291 1.2385868e-05 
 7519000   0.99625909   -4.0792759   0.52145326   -2.1879664 4.7588067e-06 
 7520000   0.68351946   -3.3827541   0.77417369   -1.6687411 -0.00026648895 
 7521000    1.6774926   -3.8628805   0.35022878   -1.2060994 -0.00015454247 
 7522000    1.1870884    -3.769259   0.51633036    -1.620682 7.1237934e-05 
 7523000    1.4302255   -4.3148222    0.4787705   -1.8694916 -0.00035713442 
 7524000    1.3950287   -3.5015034   0.54695164   -1.0363873 -0.00035384498 
 7525000   0.96496601   -4.3038979   0.59141805   -2.3856516 -0.00036567716 
 7526000   0.99770933   -3.4430576   0.33856932   -1.7326379 -0.00028210788 
 7527000    1.0019462   -4.1282138   0.26029199   -2.4902458 0.00029273195 
 7528000    1.7196432   -3.7763052   0.64623649  -0.76555926 0.00010138161 
 7529000     1.196626   -4.3512602   0.69174006   -2.0141594 2.636784e-05 
 7530000    1.0218326   -3.8502217   0.59158468   -1.8536172 0.00017966836 
 7531000   0.70164978   -3.3752172    1.0204755   -1.3899732 0.00017928043 
 7532000   0.76829405   -3.6218444   0.46565362   -2.0997865 -1.918629e-05 
 7533000   0.90267291   -3.1501288   0.58023242   -1.3287212 -0.00018822633 
 7534000    1.3389721   -3.9741001   0.54531536   -1.5876982 -0.00029198925 
 7535000   0.89751031   -3.9191589   0.29537069   -2.3897115 0.00012712843 
 7536000     1.339524    -4.235974   0.47157406   -1.9225544 -0.00024672062 
 7537000   0.70195392    -4.203312   0.30109562   -2.9370298 0.0003082531 
 7538000    1.2983382   -4.2664827   0.62827587   -1.8529918 0.00011334967 
 7539000   0.98515121   -3.8633103   0.77453644    -1.734191 -0.00017551554 
 7540000   0.88821418   -4.0609655   0.48524059   -2.3544304 -0.0001831268 
 7541000    1.0180222   -3.8149315   0.14282858   -2.2723225 0.00024173258 
 7542000   0.57361621    -4.108407   0.35964883   -2.9600358 -0.00022583471 
 7543000    1.4439361   -3.5125715   0.19917089   -1.3279885 0.0002714804 
 7544000   0.89560179   -3.7241807       0.2891   -2.2036282 -3.432818e-05 
 7545000     1.146675   -4.0439582   0.53763545   -1.9296447 -0.0001264889 
 7546000   0.96714609   -3.8829255   0.35880087   -2.1942988 -0.00031012478 
 7547000    1.2822959   -4.2246936   0.45365103   -2.0078857 3.9711341e-05 
 7548000   0.78286417   -4.3285761   0.44602484    -2.806113 -0.00010901471 
 7549000   0.86982115    -3.756944   0.43954646   -2.1213935 -0.00021094302 
 7550000   0.88181228   -3.9361524   0.65634531   -2.0673152 -0.00042432566 
 7551000   0.86694635   -4.1563386   0.85634342    -2.107944 0.0001977978 
 7552000   0.84662068   -4.2764071   0.96912499   -2.1431787 -0.00026941028 
 7553000    1.1428575   -4.0847505   0.46519494   -2.0481265 -6.2393934e-05 
 7554000    1.0608069   -3.5501592   0.46612216   -1.6254276 0.00027743036 
 7555000   0.85541853   -3.8187631   0.48859611   -2.1539665 -0.00010136727 
 7556000    1.0366541   -4.1430599   0.37095691   -2.3467036 4.9896948e-05 
 7557000   0.92036038   -4.0211776   0.50640547   -2.2492766 9.2051628e-05 
 7558000    1.0068609   -4.0435188   0.43894045   -2.2201446 -0.00020009345 
 7559000   0.97223188   -3.9592905   0.53063547   -2.0918362 0.00023571138 
 7560000   0.81301946   -4.0345568   0.71731976   -2.1993353 -0.00025673138 
 7561000    1.1837947   -4.0605352   0.70036921   -1.7324484 -0.00047536194 
 7562000     1.224535   -3.8099346   0.58116607   -1.5450328 -4.6641109e-05 
 7563000    1.0637009   -4.0118206   0.40496119   -2.1442708 -7.6901318e-05 
 7564000   0.73920354   -3.8710039   0.24038358   -2.6142154 -7.16024e-05 
 7565000    1.1300575   -4.3347752   0.65785228   -2.1230939 -0.00022940691 
 7566000   0.76265207   -3.8614884   0.46684247   -2.3459994 0.0002308128 
 7567000   0.87525858   -3.3148109   0.39857775   -1.7127526 -0.00032272213 
 7568000   0.78585759   -4.4382323   0.66333752   -2.6943406 0.00012110285 
 7569000   0.95461366   -3.4969089   0.66140782   -1.5229073 0.00042757666 
 7570000    0.9211106   -4.0187328    0.7154653   -2.0367404 1.8532245e-05 
 7571000   0.92825473   -4.2709559   0.83207007   -2.1625356 -0.0002189895 
 7572000     1.396022    -3.933981   0.16100533   -1.8534453 0.00045426794 
 7573000   0.74375722   -4.3279025   0.76177033    -2.543466 -1.3296675e-05 
 7574000    1.0273775   -3.8056949   0.27356026   -2.1194906 0.00025769249 
 7575000    1.0647011   -3.6545249   0.36281373   -1.8277472 0.00029218872 
 7576000   0.77624033   -3.8593682    0.5507668    -2.241271 -9.376174e-05 
 7577000    1.0780809   -3.7306451   0.36468685    -1.883597 -6.7733668e-05 
 7578000    0.7908303   -3.8872658   0.52757326   -2.2723009 7.3737803e-05 
 7579000   0.77335094   -4.0545994   0.37547637   -2.6157655 0.00014514955 
 7580000    1.0406698   -4.0087128   0.32303275   -2.2547591 -6.7419577e-05 
 7581000   0.98058317   -3.9491514   0.46175594   -2.1390936 0.0002046878 
 7582000    1.3934539   -3.8187114   0.49393249   -1.4087798 0.00026115087 
 7583000   0.69360107   -3.8691938   0.40352752   -2.5119648 -0.00033552411 
 7584000   0.69944883    -4.054931   0.26006894   -2.8331199 -7.1992922e-05 
 7585000    1.2450612   -3.9873208    0.4584711   -1.8168906 0.00018445703 
 7586000   0.61874043   -4.3666266   0.42107172   -3.0947868 -5.9215739e-05 
 7587000    1.1201043   -4.0650036   0.56456081   -1.9602994 -0.00045808034 
 7588000    0.5321537   -3.3533408   0.41684926   -2.2047802 -0.00017127986 
 7589000    1.2258426   -3.8229474   0.20406383   -1.9333499 0.00018204938 
 7590000    1.4150975   -4.4960634   0.15133328    -2.398971 0.00012770437 
 7591000   0.75332794   -4.1547768   0.36679981   -2.7521511 0.00037597685 
 7592000    1.1401363   -3.9785964   0.72378782   -1.6871212 -0.00046240823 
 7593000   0.89145387   -3.9964071   0.43795366   -2.3327044 -0.00011294307 
 7594000   0.93859105   -4.2983149   0.58328964   -2.4244625 0.00026785077 
 7595000    1.4996419   -3.8973292   0.28806842   -1.5472532 -0.00016486958 
 7596000    0.8626321   -4.0013081   0.56966816   -2.2455208 -5.9847529e-06 
 7597000   0.83195778   -3.7535119    0.2618232   -2.3477467 -7.9709124e-05 
 7598000    1.0041272   -3.9838436   0.56873464    -2.034434 -0.00023768268 
 7599000    1.4172622   -3.4555826   0.32871557   -1.1781315 0.00016008628 
 7600000    1.2954429   -4.0633347   0.42770002   -1.8544007 -0.00013343039 
 7601000   0.97951357   -3.7296586   0.61984008   -1.7629873 -0.00026452173 
 7602000    1.2727771   -3.9627377   0.52935844   -1.6833107 -0.00016196097 
 7603000    0.8840893    -4.513562    1.1075256   -2.1904137 -0.00012923113 
 7604000   0.81929137    -3.873375   0.30022798   -2.4466214 0.00012715395 
 7605000    1.0323023   -3.8800135   0.62926511   -1.8313327 0.00030874194 
 7606000    1.0324816   -3.8737082   0.40828868   -2.0457572 -0.00023401334 
 7607000    1.0462826   -3.7380353   0.51476703   -1.7846297 0.00020916555 
 7608000   0.85665085   -3.5470579   0.57744996    -1.791713 0.00045894021 
 7609000    1.2695485   -3.4043384   0.25150027    -1.407209 2.7771071e-05 
 7610000   0.85258377   -4.2642868    0.2719757   -2.8200084 6.2395141e-05 
 7611000    1.1024422   -3.9675215   0.67708155   -1.7745819 0.00040880135 
 7612000   0.98598781   -4.3706325   0.67618906   -2.3387102 -0.00021385475 
 7613000    0.6457271   -4.0914151   0.47688145   -2.7266589 5.3484255e-05 
 7614000    1.0878722   -3.9696708   0.24981002   -2.2240366 0.00049787098 
 7615000   0.76251155    -4.039985   0.27629823   -2.7152334 0.00028397522 
 7616000   0.92794723   -3.7907458   0.14958476   -2.3652336 1.930282e-05 
 7617000    0.9434977   -3.8712615    1.1982532    -1.375699 0.00021893221 
 7618000   0.99819769   -4.2808751    0.4910337   -2.4173196 -8.6170921e-05 
 7619000    1.4048739   -4.1774459   0.31614091   -1.9296034 0.00011940558 
 7620000    1.1782317   -3.3810533   0.56919164   -1.1917931 0.00029739837 
 7621000    1.1525061   -3.7139381   0.13277842   -1.9964638 6.3139065e-05 
 7622000   0.68714442   -4.0242064   0.41101168   -2.6683711 -0.00021584653 
 7623000   0.60286299   -4.0185793   0.26421766   -2.9254251 -0.00016140467 
 7624000    1.3516001   -4.2927731   0.44689355   -1.9874293 -0.00030045779 
 7625000   0.85623924   -3.9061896   0.45578182   -2.2730788 -0.00011372801 
 7626000   0.53064611   -4.0525718   0.45474053   -2.8681929 0.00011654696 
 7627000   0.98201456   -4.1766264   0.56801359   -2.2583427 0.00018985154 
 7628000    1.4950033   -3.8852479   0.77821566   -1.0514028 -3.78357e-05 
 7629000    1.1351385   -3.8407166   0.35526781   -1.9246334 -7.5683733e-06 
 7630000    1.0037612   -4.2339142   0.26021703   -2.5935255 0.00021249797 
 7631000   0.85868142   -4.1120414   0.81163045    -2.119724 -0.00023540897 
 7632000   0.82665419   -4.0987973   0.38621197   -2.5759358 0.00027735229 
 7633000     1.303186   -3.7459778    0.3988881   -1.5552089 0.00034397957 
 7634000    1.0889451   -4.2854263   0.70564218   -2.0824847 -0.00018003706 
 7635000    1.1149759   -4.2751845   0.40325586   -2.3388368 -0.00016751074 
 7636000    1.3514321   -4.3327256   0.46179191   -2.0127146 -0.00018767556 
 7637000   0.76320959     -3.97481  0.099480299   -2.8259166 6.185827e-05 
 7638000   0.67538487   -3.8984352   0.45612009   -2.5136609 -1.1417235e-05 
 7639000    1.1525846   -4.0458531   0.42841455   -2.0326347 -0.0004142306 
 7640000   0.94524601   -4.2187097   0.57567576   -2.3433207 0.00012921411 
 7641000    1.1002058   -3.7521799    0.1202972   -2.1190998 0.00012514257 
 7642000   0.76905402   -4.1739197   0.47452827   -2.6419422 0.00020227827 
 7643000   0.91631084   -4.2271916   0.48050113   -2.4867631 0.00032842355 
 7644000    1.5035745   -3.9082833   0.39350287   -1.4473655 -0.00035952943 
 7645000   0.72257076    -3.872414    0.5848517   -2.2940275 0.00010084187 
 7646000     1.277124   -3.6222748   0.34765756   -1.5185718 0.00063178603 
 7647000    1.1782238    -3.886601   0.47895321   -1.7875901 0.00015333413 
 7648000   0.73580427   -3.9857424   0.58211569   -2.3918959 8.170417e-06 
 7649000    1.0882246   -3.4468887   0.59252958   -1.3580502 0.0004968799 
 7650000    1.1635396   -4.1899619   0.31315026   -2.2769446 6.1065852e-05 
 7651000    1.0109775   -4.1686737    0.2822659   -2.4963137 0.00027004056 
 7652000    1.0391078   -3.7802318   0.25858848     -2.09287 7.8230931e-05 
 7653000    0.8586667   -3.9580651   0.41159674   -2.3658017 -9.5250822e-06 
 7654000   0.99892916    -4.053586   0.25565373   -2.4244046 -0.00015742265 
 7655000    1.2820358   -3.9007501   0.60841653   -1.5295344 0.00015439261 
 7656000    1.2054428   -4.1672835    0.4110524   -2.0987473 4.0228715e-05 
 7657000   0.84652604   -4.0145725   0.66646837   -2.1841308 0.00024572227 
 7658000    1.1749257   -3.3572051   0.35233612   -1.3893462 0.00047156512 
 7659000   0.75767956   -4.2431878   0.39604514   -2.8053333 7.5502728e-05 
 7660000    1.0188935   -3.4556206   0.37170303   -1.6829391 -0.00043834589 
 7661000    0.9670659   -4.3771288   0.81442665   -2.2329865 -0.00025805471 
 7662000    1.3675227    -4.210618   0.36900769   -1.9612667 -0.00013383695 
 7663000    1.2939423   -3.3079695   0.38257113   -1.1462277 0.00012869803 
 7664000    1.0656592   -4.0355076   0.34586846   -2.2243577 1.8776332e-05 
 7665000    0.8914037   -3.4123197   0.29634501   -1.8902946 0.0002599721 
 7666000    1.1109399   -3.5398122   0.62894645   -1.3833234 -0.00019786376 
 7667000   0.78913088   -3.6798353   0.66482584   -1.9299545 -0.00010025197 
 7668000   0.95477582   -4.1669755    0.5200839   -2.3340748 -1.5951895e-05 
 7669000    1.1892322    -3.965336   0.30121244   -2.0289293 -4.2704654e-05 
 7670000     1.237803   -3.8434231   0.48046676   -1.6609772 0.00013347837 
 7671000   0.73043697   -4.1192252   0.45475021   -2.6601241 0.00029281447 
 7672000    1.1658601   -3.9623998   0.60976835   -1.7495739 -8.020969e-05 
 7673000   0.75831004   -4.3142127   0.37733151   -2.8942049 -8.6004406e-06 
 7674000   0.90315137   -3.9056058   0.78551239   -1.8782602 -0.00031213519 
 7675000    1.3795954   -4.1932684   0.50441229   -1.7919125 2.7050383e-06 
 7676000   0.88002869   -3.8981949   0.47171736   -2.2164381 -3.3855302e-05 
 7677000   0.89787962    -3.649376    0.4076033   -2.0071882 -0.00010309095 
 7678000   0.89088394   -4.3763915   0.21763178   -2.9337943 0.00015946241 
 7679000    1.3215871   -4.3940439   0.26274193   -2.3141198 -8.2366511e-05 
 7680000    1.7399715   -4.0225811    1.1058996  -0.52422058 0.0001152509 
 7681000    1.0702472   -3.8736012     0.316963   -2.0850483 -5.0518482e-05 
 7682000     1.226681    -4.502693   0.53453653   -2.2814701 -0.00013982514 
 7683000    1.1184189    -3.595772   0.53780299   -1.5201431 -4.7468683e-06 
 7684000   0.78637888   -3.8646423   0.21053239    -2.572839 -1.6177841e-05 
 7685000    0.9293398   -3.5631144     0.230447   -2.0548252 0.00034623447 
 7686000    1.0516773   -4.0706974   0.56259236   -2.0620488 7.081901e-05 
 7687000   0.68346815   -3.8078495    0.3295423   -2.5385385 -0.00022841998 
 7688000   0.82694459   -3.9286612   0.38163795   -2.4099745 0.00018396937 
 7689000    1.1295532     -3.86724   0.33752152   -1.9765829 0.0001447666 
 7690000   0.54732536   -4.0055984    0.1623281    -3.090698 3.4778555e-05 
 7691000   0.73560401   -4.2363301   0.71021676   -2.5146578 -0.000359331 
 7692000    1.2390194   -4.3178451   0.88599561   -1.7281978 0.00022204886 
 7693000    1.0824109   -4.0329765   0.33298601   -2.2116755 0.00023423488 
 7694000   0.70979423   -3.6931291   0.49672711   -2.2204349 -0.00021656159 
 7695000   0.54535069   -4.3572631   0.56799415   -3.0394118 0.00011499346 
 7696000    1.1140962   -3.9313337   0.47537116   -1.9240803 0.00011043898 
 7697000     1.009934   -4.1598222   0.73457101    -2.036592 2.7086379e-05 
 7698000   0.86613124   -3.8017256   0.52233983   -2.0884554 0.00016530921 
 7699000     1.036551   -3.1182702   0.39284345   -1.3001691 -3.9716118e-05 
 7700000   0.88082035   -3.8681841   0.41252375   -2.2445324 -0.00012780096 
 7701000    1.0448138   -4.2562153   0.40414632     -2.41545 2.0004909e-06 
 7702000     1.288725   -3.9528366   0.67941253   -1.5014272 -0.00034388529 
 7703000   0.93424639    -3.976005   0.44109849   -2.2503177 6.8660895e-05 
 7704000    0.8245563   -4.3098407   0.17741232   -2.9986635 2.1774484e-05 
 7705000    1.1940422   -3.8407593   0.31389018   -1.8850612 -9.8096136e-05 
 7706000    1.1509478   -3.3506627   0.37560351    -1.392506 -0.00020819097 
 7707000    1.1218222   -4.3712649    0.5700644    -2.258695 -5.11327e-08 
 7708000   0.73094169   -4.1897791   0.54276737   -2.6419669 -4.0344282e-05 
 7709000   0.69615862   -3.8904732   0.67102991   -2.2622252 -0.00024559695 
 7710000   0.82843917   -4.3660693   0.58881646    -2.638149 -1.0961768e-05 
 7711000   0.67062269   -4.0214315   0.50765833    -2.591667 0.00022631155 
 7712000    1.2930695   -3.9335073   0.15891117   -1.9966256 0.00094272299 
 7713000    1.1056717   -4.0198662    0.3213274   -2.1782402 0.00020280313 
 7714000   0.70972014   -3.7785424   0.21001707   -2.5926602 -0.00024103303 
 7715000    0.8477176   -3.9383665   0.45402649   -2.3187283 -2.3218858e-05 
 7716000    1.2346022   -3.7274935   0.95211181   -1.0778037 -0.00037585082 
 7717000   0.91746597   -4.0280572   0.25272019   -2.5138213 0.00047776906 
 7718000   0.69187003   -3.1167542   0.56610798   -1.5993249 -9.219146e-05 
 7719000   0.72991011    -4.430611    0.8018864   -2.6250982 -0.00028306711 
 7720000    1.0001515   -3.9056676   0.73813875   -1.7923206 -0.00018423415 
 7721000    0.9952754   -3.6782081   0.49540788   -1.8142965 -0.00029052073 
 7722000   0.69485749   -3.9329031   0.21916057   -2.7583134 -5.2252303e-05 
 7723000    1.0571488   -3.7289718    0.3236393   -1.9517528 7.1780635e-05 
 7724000     1.227399   -3.9640149   0.35552774   -1.9208135 0.00023732485 
 7725000    1.1373151   -4.1268517   0.56788944    -1.995154 0.00024926947 
 7726000   0.96203106    -4.267157   0.68842223    -2.255942 -1.1456525e-06 
 7727000   0.74374956   -4.2991422   0.34369461   -2.9327919 0.00010668785 
 7728000   0.97625458   -3.7674492    0.5919126   -1.8331865 0.00011767479 
 7729000    1.1604903    -4.063408   0.45031814   -2.0174158 0.00024505537 
 7730000   0.92022532   -4.2669421   0.52012826    -2.481504 -1.1057468e-05 
 7731000   0.73305755   -3.8121401   0.31190181   -2.4922842 -0.00016002617 
 7732000   0.78567107   -3.7581818   0.23009518   -2.4477889 0.00015647604 
 7733000    1.3297273   -3.9320868   0.21341254   -1.8902992 -7.1941298e-05 
 7734000   0.88136628   -4.2129538   0.40397761   -2.5970975 -0.00017427589 
 7735000    1.3931813   -4.1960167   0.56723312   -1.7131593 0.00020743757 
 7736000    1.4053948   -4.4446681   0.71315268   -1.7990975 4.5707939e-05 
 7737000   0.82592441   -4.3596267  0.093463357   -3.1305173 -0.00014223574 
 7738000   0.99768602    -4.041988    1.1612864   -1.5088833 -0.00045213442 
 7739000    1.2198549   -4.3535898   0.26836262   -2.4079267 -3.3101372e-05 
 7740000   0.90368243   -4.3258145   0.30337474   -2.7798764 6.0795011e-05 
 7741000    1.0756035   -4.3590932   0.44835841   -2.4317799 -0.00011111377 
 7742000   0.48225378   -4.2579271   0.42726877   -3.1675594 -7.4235726e-05 
 7743000    1.2011806   -3.7912065    0.1565339   -1.9830493 0.00043948006 
 7744000   0.91080777   -4.3331421   0.36657354   -2.7142078 -0.00036128623 
 7745000    1.0925689   -3.9788592   0.14724238   -2.3293346 0.00014684961 
 7746000    1.1255455   -4.0789115   0.70324953    -1.828037 -0.0001278508 
 7747000   0.82051791   -3.1867238   0.84740748   -1.2111042 0.0001267467 
 7748000    0.9873999   -4.1533181   0.36480064   -2.4308426 0.00017384059 
 7749000   0.80319452   -3.7221351   0.33966391   -2.2780787 0.00020527586 
 7750000   0.88224266   -3.6121784   0.31918311   -2.0799116 -7.824281e-05 
 7751000   0.62908263   -4.0214996    0.3816068   -2.7749042 -0.00030418091 
 7752000   0.86043873   -3.5713144   0.27245882   -2.1157523 -0.00021618101 
 7753000   0.80944615   -4.0383693   0.41954787    -2.505833 -7.6860103e-05 
 7754000    1.0942607   -3.9268592   0.52176469   -1.9004861 0.00018348441 
 7755000    0.9271507   -4.0547288   0.24735911   -2.5325375 5.9308271e-05 
 7756000    1.2771561    -4.355138   0.45225362   -2.1467948 -0.00017629274 
 7757000   0.90837892   -4.1735694   0.42555057   -2.4989978 -0.0002206203 
 7758000   0.99207482   -4.5459007   0.62091617   -2.5608816 -8.1049385e-05 
 7759000    1.0398143   -3.9180194   0.19319711   -2.2950776 0.00047957506 
 7760000   0.92790113   -4.2963717   0.54653969   -2.4739679 -2.60282e-05 
 7761000   0.91042682    -3.815582   0.48050097   -2.0832442 -0.00013945938 
 7762000    1.0257124   -4.0962849     0.482891   -2.2030393 -0.00024275335 
 7763000    0.7315806   -3.6452723   0.38636636   -2.2529826 8.2934628e-05 
 7764000    1.0408642   -4.0150566   0.49326501   -2.0906033 -9.0208402e-05 
 7765000   0.84142847   -4.0747677   0.37631049    -2.541493 3.6819948e-05 
 7766000   0.90550365   -3.6470344   0.17262519   -2.2293417 0.00029839574 
 7767000    1.7035615   -4.2197051   0.67541148   -1.2018966 0.00026949741 
 7768000   0.95817965   -3.9980656   0.88383483   -1.7967337 -0.00020522257 
 7769000     1.013684   -4.3603916   0.57607725   -2.3904989 -0.00020383176 
 7770000   0.58606926   -4.0364415   0.24207335   -2.9885229 4.2844702e-05 
 7771000    1.1580034   -3.7511947   0.65850218   -1.5004378 -6.2540223e-05 
 7772000   0.80451943   -4.0340614    0.4582434   -2.4696038 0.00044808735 
 7773000   0.82031396   -3.8063154   0.33890224   -2.3394815 0.00019997843 
 7774000    1.4971224   -3.4390651   0.62282993  -0.75769187 5.0392462e-05 
 7775000   0.49176848   -3.6589926    0.5294945   -2.4533165 -0.00026192384 
 7776000   0.90637839   -3.2856705   0.48828983   -1.5511104 3.9477986e-05 
 7777000    1.0599678   -4.4153626    0.6346623   -2.3232445 -0.0002824969 
 7778000   0.48125071   -4.1650501   0.87605884   -2.6272715 -0.00017479439 
 7779000   0.74502504   -3.8242987   0.65801443   -2.1418748 -0.00013763492 
 7780000    0.8796144   -4.2646208   0.27168379   -2.7834672 0.00028585726 
 7781000   0.68620754   -3.9111209   0.66267297   -2.3049126 0.00047328629 
 7782000   0.87998714   -3.3989472   0.53007513   -1.6588897 -0.00016041471 
 7783000   0.59657492   -4.1866954   0.51000674   -2.8563981 -0.00010551355 
 7784000    1.4195907   -4.1352106   0.50206686   -1.6812065 0.0002902383 
 7785000   0.57609662   -3.9432204   0.41268604   -2.7384015 0.00010858774 
 7786000    1.4829481   -4.3190638    0.4654905   -1.8145196 2.4452349e-05 
 7787000      1.03882   -4.0519402   0.55277219   -2.0707905 3.2770997e-05 
 7788000   0.94001143    -4.020632   0.44548312   -2.2826331 0.00031846368 
 7789000    1.3663943   -3.6909254   0.78774157   -1.0243916 0.00037553141 
 7790000    1.7434875   -3.9178417   0.63127304  -0.88927334 -5.2059004e-05 
 7791000   0.96560229   -4.3094209   0.56470594   -2.4170118 -6.4767592e-05 
 7792000    1.3383153   -3.3439883   0.29589483     -1.20791 3.044468e-05 
 7793000   0.78607256   -3.8393614   0.45890843   -2.2996032 -0.00020089003 
 7794000      1.22344   -3.0403042   0.49165352  -0.86642064 0.00030026554 
 7795000   0.74072391   -3.8224987   0.67158348   -2.1324198 -0.00026810828 
 7796000    1.0879632   -3.4427842   0.20577639   -1.7410584 0.0003696792 
 7797000   0.60160381   -3.9827268   0.41842318   -2.7370983 0.00011332682 
 7798000    1.0805796   -4.2754035   0.50096471   -2.2886419 -3.641369e-05 
 7799000   0.76541215   -4.1095854   0.62637731   -2.4307664 1.4320367e-05 
 7800000    0.6133341   -3.8274208   0.28596058   -2.6981258 0.00017733392 
 7801000   0.67370232   -4.0290422   0.66580773   -2.4368937 -7.4730317e-05 
 7802000   0.67728157   -4.1020531    1.0176538   -2.1531372 -0.00041033766 
 7803000   0.95362007   -4.3200817   0.58945314    -2.419401 -0.00010302624 
 7804000   0.86465921    -4.217294   0.27789373   -2.7504939 6.1111837e-05 
 7805000   0.88468333     -4.22096   0.51590776   -2.4886126 -4.7898618e-05 
 7806000    1.1413568   -3.4856529   0.22994734     -1.68634 -0.00014213308 
 7807000    1.2317337   -3.3825083   0.57719379   -1.1116806 0.00058204183 
 7808000   0.80877174   -3.8678184   0.45553702   -2.3002202 9.0921988e-05 
 7809000   0.75707666   -4.1772579   0.51931721   -2.6169603 0.0001630193 
 7810000    1.0271219   -3.6993145   0.59785523   -1.6891666 -7.6604042e-06 
 7811000   0.88642534    -3.534262   0.60061869   -1.7148084 8.726659e-05 
 7812000    1.4602631   -3.9445677   0.29023323   -1.6464728 0.00038310174 
 7813000   0.77219284    -4.085669   0.12690914   -2.8969947 -0.00016927047 
 7814000    1.0572676   -3.8721274   0.45354666   -1.9648378 -0.00029140553 
 7815000   0.78887003    -4.322975   0.30815742   -2.9301213 0.0001880139 
 7816000    1.0382578   -4.0704363   0.49749299   -2.1453388 5.1328743e-05 
 7817000    0.7160261   -3.9927966   0.46108804   -2.5471727 0.00012400266 
 7818000   0.80383757   -4.0559315    0.2354743   -2.7151806 -7.0401761e-06 
 7819000    1.0415408   -3.6853299   0.44853444   -1.8046769 -4.6539223e-05 
 7820000   0.84296197   -4.0835303   0.30210495   -2.6223527 0.00033577586 
 7821000   0.78446328   -4.2952516   0.33367586   -2.8829388 -5.6128379e-05 
 7822000   0.96733493   -3.9137843   0.51279811   -2.0709006 -0.00014426387 
 7823000    1.4135092    -4.448502   0.76032955   -1.7445973 2.6953189e-05 
 7824000    1.0049599   -4.3243429   0.20430221   -2.7382209 6.5466857e-05 
 7825000    1.5707312   -4.2070784   0.23928408    -1.808039 -2.7784071e-05 
 7826000   0.90109471   -4.2316751   0.88087041   -2.1117995 -0.00035280099 
 7827000    1.0423409   -3.9833809   0.37219072   -2.1779714 5.4846973e-05 
 7828000    1.2922186    -3.929886   0.51179143   -1.6412941 -3.9692852e-05 
 7829000    1.4751559   -4.3919425    1.0431051   -1.3204981 -0.00016533842 
 7830000   0.83070796   -3.7800252   0.33086255   -2.3069393 -9.2894777e-05 
 7831000   0.86456268   -3.9257726   0.66248763   -2.0745113 -0.00023323911 
 7832000   0.64930764   -4.0624158    0.6851624   -2.4844554 -0.00023163446 
 7833000    1.7622027   -4.0246469   0.49048561   -1.1111325 0.00032903246 
 7834000   0.95988923   -3.7323944   0.17098529   -2.2415614 0.00012453425 
 7835000     1.024235   -4.0088129   0.37234937   -2.2281404 0.00011133139 
 7836000    1.1067488    -4.104995   0.69840114   -1.8848143 4.9163933e-05 
 7837000    1.0239961   -3.9855075   0.18165629   -2.3958565 -0.00025491022 
 7838000    0.6268461   -4.2707629    0.3471905    -3.061659 -8.3182778e-05 
 7839000    0.8410701   -4.0454743   0.36453496    -2.524468 0.00012928029 
 7840000    1.2242333   -3.9983183   0.49600141   -1.8189961 0.00045580357 
 7841000   0.83520638   -4.1439955    0.5126015   -2.4829853 0.00047138591 
 7842000   0.93305119   -4.1946934   0.55520421   -2.3565439 -0.00010243711 
 7843000   0.86040537   -3.3346344   0.32257643   -1.8290006 0.00025207567 
 7844000    1.0091707   -4.0884978   0.64699464   -2.0538934 0.00019574635 
 7845000   0.81114326   -4.2518831   0.30096635   -2.8355948 0.00028958299 
 7846000   0.84242495   -3.9907305    0.2563681   -2.5760281 -0.00013684574 
 7847000   0.59521811   -4.3213714   0.48238655     -3.02056 0.00011122637 
 7848000    1.1818222   -4.1539462   0.41509149   -2.1138491 5.9408047e-05 
 7849000    1.0424733   -3.2539548   0.41533692   -1.4052171 8.2101942e-05 
 7850000     1.181321   -3.9419699   0.66368152   -1.6539721 0.00016619479 
 7851000   0.67153213   -4.4887276   0.62591706   -2.9394539 -2.5425817e-05 
 7852000    1.1540701   -3.9958583   0.54093102   -1.8680809 0.00014797799 
 7853000   0.96046216    -4.066577   0.45430339   -2.2916382 4.6237887e-05 
 7854000     1.080202    -4.206144   0.41653536   -2.3043309 1.2385178e-05 
 7855000    0.5781036   -4.3877115   0.55894332   -3.0338758 5.7929551e-05 
 7856000    1.1360417   -4.2825542    0.3731917   -2.3473051 -0.00020466521 
 7857000   0.56140525   -3.8032967   0.40631244   -2.6250521 1.7278647e-05 
 7858000   0.60376082   -4.1305358   0.39173735   -2.9086273 -0.000265016 
 7859000   0.78569713   -4.2834364   0.33573622   -2.8673666 -0.00021642988 
 7860000    0.9274585   -3.9635422   0.65108205   -2.0372047 0.00013130223 
 7861000    0.8258762    -4.107289   0.56307707   -2.4086322 -6.4731194e-06 
 7862000   0.78345358   -4.3501363   0.36944128   -2.9034463 1.4980029e-05 
 7863000   0.77588205   -3.6988003   0.23860293   -2.3933596 -6.6691251e-05 
 7864000    1.1900402   -3.9474892   0.48620222   -1.8249818 -8.6967837e-05 
 7865000    1.1788989   -4.2276604    0.9562331   -1.6504414 -0.00042385287 
 7866000   0.97403039   -4.1464798    0.6457509   -2.1614371 -9.3555555e-05 
 7867000   0.66895284   -3.8038055   0.38835204   -2.4956433 -0.00011343058 
 7868000   0.61722609   -3.9522439   0.34586812   -2.7576899 -0.00031940939 
 7869000   0.71398008   -3.6210572   0.40415888   -2.2351758 -3.2078072e-05 
 7870000    1.3558618   -4.3473137   0.16454576    -2.318458 0.00027347073 
 7871000    1.1439619   -3.3786145   0.54297269   -1.2626942 0.00012465148 
 7872000   0.78213918   -3.5484665   0.48558821   -1.9874369 -7.3026883e-05 
 7873000    1.1386213   -4.3034816   0.25802706   -2.4798502 7.7436206e-05 
 7874000    1.0525512   -4.0995767   0.42946119   -2.2228575 -8.5508072e-05 
 7875000    1.1366968    -4.087406    1.2483005   -1.2761474 8.0972522e-06 
 7876000    1.0500706   -3.9098342   0.41797429   -2.0480128 0.0002105219 
 7877000   0.70430157    -3.712756   0.56546997   -2.1788714 -9.7963507e-05 
 7878000   0.68816556      -3.7984   0.69552314   -2.1566493 -0.00014155926 
 7879000     1.160057    -4.079673   0.83909914   -1.6454955 0.00038325693 
 7880000   0.92837894   -4.2722509   0.22088784    -2.774842 0.00010634519 
 7881000    1.3195254   -3.6853673   0.52557143   -1.3454484 -0.00015283176 
 7882000   0.76008294   -4.1222102   0.61350247   -2.4635937 -0.00010160748 
 7883000    1.3794224   -3.8424206    0.5191739   -1.4265409 -3.8773184e-05 
 7884000    1.1397813   -4.2059376   0.21621305   -2.4225252 -0.00010704235 
 7885000    1.3372181    -4.157199   0.49968767   -1.8188365 0.00019620328 
 7886000   0.92127724   -4.0849996   0.12072184   -2.6975215 0.00033254717 
 7887000   0.96033347    -4.086313   0.57957153    -2.186283 -0.00024184309 
 7888000    1.5987959   -3.4137603    0.4326764  -0.78273947 -3.6730028e-05 
 7889000    1.0445608   -4.1927145   0.67113438    -2.085309 0.00032987654 
 7890000   0.87396096   -4.2991523   0.53816541   -2.5592906 2.2405441e-05 
 7891000   0.87057839   -3.8435099   0.43733367    -2.209131 0.00036308501 
 7892000    1.3807058   -4.2841011   0.48875611   -1.8968745 7.791947e-05 
 7893000    1.1716939   -3.9379163   0.36874936   -1.9580879 -0.00027547251 
 7894000    1.2120688   -3.9907972   0.60499499   -1.7192076 -3.6073398e-05 
 7895000   0.89146072   -3.7097438   0.64017167   -1.8438137 8.0354319e-05 
 7896000    1.0777231   -3.9603084    0.5197196   -1.9587196 0.00014304687 
 7897000    1.4223202   -4.0007589   0.68356239   -1.3615063 -5.2463828e-05 
 7898000   0.50719397   -3.9338212   0.32859113   -2.9078384 2.5364813e-05 
 7899000    1.1636114   -4.0144888   0.49061445   -1.9239086 0.00038936129 
 7900000   0.63408373   -4.0292762   0.18333925   -2.9740718 -0.00013075197 
 7901000    1.2287043   -3.9363878   0.27435829   -1.9725611 8.8186586e-05 
 7902000   0.75629499   -4.3092756   0.38319974   -2.8861702 -0.00018952732 
 7903000    1.0485994   -4.1348449   0.24641409   -2.4466066 4.3011036e-05 
 7904000    1.1018227   -4.3160074   0.89165555   -1.9093457 0.00010630426 
 7905000    1.1410022   -4.0603382   0.55242308   -1.9390371 -0.00019813428 
 7906000   0.84825112   -4.3287695   0.28071818    -2.881706 0.00024134952 
 7907000   0.78453965   -3.3762801   0.44699013   -1.8505479 0.00046673322 
 7908000   0.49758246   -4.1579164   0.35959672   -3.1141438 0.00011361372 
 7909000     1.130799   -3.5391157   0.33254576   -1.6517213 0.0004147145 
 7910000    1.0161624   -4.4438764   0.38133468   -2.6653185 -0.00029115144 
 7911000   0.98906805   -4.1190502   0.73157911   -2.0275025 6.9466292e-05 
 7912000   0.71369194    -4.412329   0.28675179   -3.1442508 0.00027137049 
 7913000   0.85331973   -3.5074934   0.40968961   -1.9244892 0.00011283185 
 7914000    1.0621249   -3.5489672   0.76778278   -1.3207626 9.1457301e-05 
 7915000   0.83883707   -4.1481587   0.52545608   -2.4693016 -3.8871348e-05 
 7916000    1.2098612   -4.3442534   0.32008563   -2.3606087 4.2316258e-05 
 7917000    1.1279062   -3.9257921   0.44943029   -1.9254908 -3.6880973e-06 
 7918000    1.0667231    -3.574529   0.30938137   -1.7984033 8.8264657e-05 
 7919000    1.0501934    -4.058613   0.17660279   -2.4379942 0.00019899263 
 7920000    1.0509485   -3.9807396   0.18951945   -2.3461659 0.00034248555 
 7921000    1.2561255   -3.9627179   0.23336413   -2.0021813 0.00052199317 
 7922000   0.91333802   -4.2390087   0.21638803   -2.7667809 0.00031741781 
 7923000   0.88845097   -3.8923715   0.43295412   -2.2377973 -2.3571773e-05 
 7924000   0.66358687   -2.6412628   0.24365434   -1.4851765 -0.00024896139 
 7925000    1.1402498   -3.5288741   0.64414081   -1.3168898 -0.00016005325 
 7926000    0.9564753   -3.8320771   0.43828246   -2.0786411 -7.146131e-06 
 7927000   0.98063103   -3.7505001    0.2327664    -2.169366 -0.00014973188 
 7928000   0.59159586   -3.7815806   0.73408446   -2.2340518 -0.00013013327 
 7929000    0.9749201   -3.2489214   0.90203785   -1.0063684 -8.7498898e-05 
 7930000   0.67937843   -3.7841851   0.42044788   -2.4295919 0.00026694209 
 7931000   0.57924299   -4.0679366   0.31854937   -2.9529281 0.00026791405 
 7932000    1.2355317    -3.780498   0.37834742   -1.7032945  0.000219807 
 7933000     1.637053   -4.4276613   0.53732661   -1.6393867 4.2916045e-05 
 7934000   0.62801097   -4.0388496   0.57119568   -2.6041388 -0.00041618686 
 7935000   0.81886248   -3.8030012   0.62118567   -2.0558796 -0.00036057174 
 7936000   0.86051904   -3.9689623   0.50416478   -2.2815838 0.00042199588 
 7937000    1.3876827   -4.0140668    0.5112956   -1.5947075 0.0001100535 
 7938000    1.3405658   -3.9032924   0.56265474   -1.4973597 0.00019780161 
 7939000    1.2856122   -4.4048605   0.47443331   -2.1627104 -0.00011374042 
 7940000    1.3546119   -4.0993628   0.68061211   -1.5561593 -1.3977736e-05 
 7941000   0.82114209   -4.2599991   0.21531427   -2.9156144 -5.7558487e-05 
 7942000   0.94237813   -4.1685073   0.26120936    -2.611528 0.00026451681 
 7943000     1.112559   -3.8212498   0.52556367   -1.7659175 -0.00027364538 
 7944000   0.81240401   -3.1883506   0.17644996   -1.8948451 0.0004300826 
 7945000   0.88853146   -3.8969662   0.57741158   -2.0978239 0.0001516802 
 7946000    1.0434069   -3.8585918   0.32642066   -2.0974867 -0.00035529586 
 7947000    1.1842926   -3.6638484   0.24479326   -1.7906528 0.00037382042 
 7948000    0.6818852   -4.2184357   0.53392613   -2.7469175 -0.00012790677 
 7949000    1.2253331   -3.8617402   0.63100087   -1.5459063 0.00010893464 
 7950000   0.96145247   -4.0321093    0.5017947   -2.2083175 -7.9991582e-05 
 7951000    1.5841598   -3.9972446   0.34363236   -1.4753925 0.00031664338 
 7952000    1.0131216   -3.9693515   0.83432131    -1.741988 -0.00034675325 
 7953000   0.89885711    -4.199898   0.44072304   -2.5232465 0.00016951355 
 7954000   0.89935485   -4.0912696   0.19696276   -2.6576939 -0.00011937957 
 7955000    1.4733749   -3.8290881   0.35486507   -1.4483326 0.00059367196 
 7956000    1.3819835   -3.8398554   0.10034057   -1.8392876 5.3294179e-05 
 7957000    1.0707456   -4.2413071   0.68928621   -2.0797457 3.1390159e-05 
 7958000   0.85904368   -3.5450898   0.52126158   -1.8426432 6.1285065e-05 
 7959000   0.67496175   -4.1840477   0.40636809   -2.8496072 -0.00030187555 
 7960000    1.0600208   -3.5655357   0.49509993   -1.6129072 0.00027087232 
 7961000    1.0031816   -4.4593544   0.29520946   -2.7847702 0.00031488009 
 7962000    1.1279002   -3.6050825   0.46339796   -1.5908218 -0.00022795304 
 7963000   0.99075453   -4.2853503   0.18358982    -2.739473 -2.2232212e-05 
 7964000   0.76055413   -3.2422307   0.39405333   -1.8024155 0.00043641979 
 7965000    1.0835811   -4.3893724   0.38107519   -2.5183733 0.00024806932 
 7966000   0.71566022   -3.9120068   0.45171206    -2.476262 -7.129775e-05 
 7967000    1.2811516   -4.0030908   0.77791833    -1.463589 0.00027799541 
 7968000   0.79940349    -4.039345   0.48023093   -2.4599343 0.00027599054 
 7969000   0.95305622   -3.8790357   0.37731715   -2.1912663 0.00047405826 
 7970000    1.1745619   -3.6131493   0.38517839   -1.6129483 -0.00017786432 
 7971000   0.84960557   -4.0552848   0.37128807   -2.5157891 0.00042401236 
 7972000    1.1804761   -4.2699922   0.47511948    -2.171718 -0.00024698822 
 7973000    1.1883003   -3.5183869    0.4551276   -1.4293464 -7.2823954e-05 
 7974000   0.89834122   -3.6856547   0.33423633   -2.1161992 0.00077787387 
 7975000   0.85557098   -4.0120469   0.14342048   -2.6922163 0.00018340297 
 7976000   0.67805589   -3.5316007   0.47891838   -2.1203555 -0.00021951292 
 7977000    1.0098283   -3.6256808   0.52289911   -1.7142678 3.6938545e-05 
 7978000   0.93356615   -3.8385438   0.34392507   -2.2109653 -0.00027740455 
 7979000   0.97585676   -4.1345435   0.37388758   -2.4188529 -0.00025545052 
 7980000   0.85225099   -4.3236121   0.81673787   -2.3350291 1.3409824e-05 
 7981000    1.2004863   -3.8460589    0.6408115   -1.5545787 -0.00035087146 
 7982000    1.3523324   -4.1004646    0.4313863   -1.8096212 0.00011336602 
 7983000   0.73420717   -4.2524093   0.62189854   -2.6209759 0.00010933188 
 7984000    1.2734965   -4.0014136   0.23192983   -2.0184262 0.00025501006 
 7985000   0.85053893   -3.4907384   0.31825248   -2.0029949 -0.00034318534 
 7986000    1.4607733    -3.739518   0.36610974    -1.364845 -2.791774e-05 
 7987000     1.505598   -2.9572891   0.43405622  -0.45303566 2.7054567e-05 
 7988000   0.77151138   -3.7371277   0.51917659    -2.157123 0.00016657605 
 7989000    1.4451462   -4.1476947    1.2821111  -0.87850753 -9.2873391e-05 
 7990000    1.3124504   -4.1034766   0.44010012   -1.8587571 -9.2661846e-05 
 7991000   0.85946594   -3.7635689   0.34262639   -2.2391768 0.00011476525 
 7992000    1.1376563   -4.3353677   0.24452943   -2.5265608 -8.2899055e-05 
 7993000    1.0459682   -4.2270561   0.30404349   -2.4848062 3.3046398e-05 
 7994000   0.75499735   -3.4443474   0.23938142   -2.1668446 0.00068334684 
 7995000    1.5361511   -4.0113465   0.55787875     -1.34126 -0.00036657349 
 7996000    0.8267911   -3.9093395   0.38320588   -2.3892958 5.7638333e-05 
 7997000    1.1589467   -3.9883989   0.45525327    -1.939594 -8.3451717e-05 
 7998000   0.69020659   -4.2370772   0.93908083   -2.3489623 0.00031483219 
 7999000   0.76016418   -3.9326805   0.80798892   -2.0794659 -0.00017447561 
 8000000    1.2231445   -4.0397866    0.7307828   -1.6271801 7.5972242e-05 
 8001000   0.94362634   -3.2348684   0.27790288   -1.6594793 0.00029228484 
 8002000         1.16    -3.498344   0.82322376   -1.0801202 0.00058282011 
 8003000    1.0394007   -4.0276824   0.57513134   -2.0233752 0.00028972249 
 8004000   0.88854742   -4.0093587   0.57875108   -2.2088549 -1.5787685e-05 
 8005000    1.4492281   -4.2436576   0.10216335   -2.1488056 5.3803442e-05 
 8006000    1.2070584   -4.1541128   0.68956483   -1.8048427 -2.5007879e-05 
 8007000     1.045334   -4.0167714   0.42376257   -2.1556746 0.00019494347 
 8008000    1.1581339    -3.861855   0.20098318   -2.0684377 0.00055513711 
 8009000    1.1327778   -4.2750832    0.3393168   -2.3781969 -0.00020511698 
 8010000    1.3063262    -3.883864   0.54731468   -1.5403508 0.0004358974 
 8011000   0.67682444   -4.0886491   0.53117508   -2.6268404 -0.00026123548 
 8012000    1.1372441   -3.6644452   0.19418947   -1.9065451 0.00053099862 
 8013000    1.0370213   -4.1731927   0.56187194   -2.1854165 0.00014863429 
 8014000    1.2131532   -3.3473248    0.3951023   -1.2841369 0.00028569734 
 8015000   0.66548815   -4.1692146   0.25257139    -3.001597 0.00049932013 
 8016000   0.96878013   -4.2396546   0.22522954   -2.6823524 -0.00011084495 
 8017000    1.0362301   -4.1678847   0.36679291   -2.3762754 -0.00021772909 
 8018000    1.4180904   -3.8635533   0.28975455   -1.6239244 0.00028790425 
 8019000   0.85020642   -3.7918552   0.52363237    -2.099189 -0.00010385294 
 8020000   0.68975015    -4.199827   0.68006517   -2.5713554 -0.00021015476 
 8021000    1.3993899   -4.1263366   0.40412223   -1.7980532 0.00019446583 
 8022000    1.0157372   -4.2312956   0.25651722   -2.5781397 0.00018750997 
 8023000    1.3476703   -4.1456433   0.42051109   -1.8720856 7.5590871e-05 
 8024000    1.1894886   -4.0065767   0.14642114   -2.2246088 0.00017064205 
 8025000   0.84382877   -4.3376525   0.39372867   -2.7836593 0.00010341978 
 8026000   0.88088696   -3.9363048   0.71525654   -2.0098287 -0.00021650389 
 8027000    1.0117924   -4.1739559   0.26007497   -2.5226664 8.2663587e-05 
 8028000    1.0031814   -3.9984272   0.76554771    -1.853505 -0.00036518168 
 8029000   0.79351377   -4.1764772   0.19159626   -2.8937996 -9.5161786e-05 
 8030000   0.72060475   -4.0207908   0.32462351   -2.7053357 2.7837313e-05 
 8031000    1.4201573   -3.9440229   0.50829889   -1.4830078 -0.00013951828 
 8032000    1.3993105   -3.8314508   0.70396075   -1.2034381 -0.00029723984 
 8033000   0.61191652   -4.2549731   0.53165538   -2.8819325 -0.00017299788 
 8034000    1.2917188   -3.9147705   0.51528526   -1.6233719 -0.0001324074 
 8035000   0.77194798   -4.3769596   0.22483934   -3.0906917 4.6501934e-05 
 8036000   0.83760781   -3.2793657   0.33641708   -1.7912379 -0.00012267112 
 8037000   0.88606306   -4.3199037   0.31240763   -2.7891593 0.00025715235 
 8038000    1.2402738   -4.0297881   0.50192092   -1.8224908 -0.00013265186 
 8039000    1.0050311   -4.4147586   0.39741963   -2.6354212 -0.00019710419 
 8040000    1.0697786    -4.094517   0.42250402   -2.2010675 -3.3145139e-05 
 8041000     1.214826   -4.0689501   0.43005833   -1.9685061  2.39054e-05 
 8042000    0.9055834   -4.0073585   0.45391509   -2.3082663 -0.00040368445 
 8043000    1.0019772   -3.7792139   0.37079657   -2.0306988 0.00039354233 
 8044000   0.85900611   -3.5779489   0.39426231   -2.0025532 -4.1689568e-05 
 8045000    1.0088806   -4.0890335   0.30360969   -2.3982129 0.00010732042 
 8046000    1.1601028   -4.3362537   0.34978962   -2.3913226 -0.00024913133 
 8047000    1.0618795   -4.4207516   0.48142813   -2.4792391 -0.00019766912 
 8048000    1.1766009   -4.0473075   0.54036203   -1.8891192 -0.00025057756 
 8049000     1.182396   -4.0822799   0.46853347    -1.987952 -0.00021778043 
 8050000   0.84008554   -3.8046841   0.45109055   -2.1984759 0.00013487795 
 8051000   0.71270637   -3.7731776    0.4665519   -2.3266544 9.6345642e-05 
 8052000   0.77300411   -3.9120044   0.37654549   -2.4725783 -2.0934097e-05 
 8053000    1.3396356   -3.8616214   0.71207535   -1.3075471 -6.5231437e-05 
 8054000   0.92865595   -4.0116568   0.33140876   -2.4033461 -7.7809786e-05 
 8055000   0.87757765   -3.7864382   0.41635974   -2.1634092 4.8633447e-05 
 8056000   0.84703023   -4.0134462   0.23133739   -2.6174422 6.8681634e-05 
 8057000    1.0724866   -3.4775529   0.49555011   -1.5073337 -7.5793474e-05 
 8058000   0.83930788   -3.8515401   0.36483814   -2.3326536 -0.00023065964 
 8059000    1.0852327   -4.1454779   0.33187469   -2.3214082 0.00030172696 
 8060000    1.3003996   -3.9526864   0.73963076   -1.4250062 0.00014903944 
 8061000   0.83745667   -4.1761092   0.47674314   -2.5478631 -6.9602905e-05 
 8062000   0.73482301   -4.3088901   0.53899741    -2.759511 0.00016214885 
 8063000    1.1911504   -3.8929947    0.7879664   -1.4671966 -0.0001984778 
 8064000    1.1163248   -3.7257627    1.0012796   -1.1895365 -0.00031699758 
 8065000    1.1886211   -3.7288843   0.31035274   -1.7841776 -7.4005758e-05 
 8066000    1.3363446   -3.7075954   0.62796306   -1.2421585 -0.00011408279 
 8067000    1.0613515   -4.2655157   0.76366147   -2.0424959 0.00032012423 
 8068000   0.72766287   -3.8239869   0.46443631   -2.3590142 3.0404442e-05 
 8069000    0.8960123   -4.1863668   0.29565029   -2.6586996 7.7206964e-05 
 8070000    1.0956971   -3.8060007    0.5932345   -1.7061827 -0.00021863478 
 8071000   0.53615065   -4.3071633   0.59555867   -2.9743975 8.7595481e-05 
 8072000    1.3271356   -4.0996701   0.64174734   -1.6331114 4.2543814e-05 
 8073000    1.4823087   -4.4312137   0.65703363   -1.7360056 -0.00011524367 
 8074000     1.033572   -4.1134241   0.29541006   -2.3968526 0.00013308355 
 8075000     1.301266   -3.9402541   0.37089608   -1.7801172 0.00010866801 
 8076000   0.69008011   -3.8790033   0.59512709    -2.335016 -0.00042418974 
 8077000   0.91491169   -3.6379575   0.18146141   -2.1984925 0.00054302388 
 8078000   0.92979865   -4.1498299   0.50530961   -2.3660471 -4.2296626e-05 
 8079000   0.78010499   -3.6771453    1.0323125   -1.5721884 -0.00018106171 
 8080000   0.65648899   -3.0375026   0.46631499   -1.6685153 -0.00029242422 
 8081000   0.90426306   -4.2029791   0.62369026   -2.3359272 -0.00053496739 
 8082000     1.791001   -4.2774703   0.62613512   -1.1887088 -0.00022242857 
 8083000   0.80373001   -4.1617035   0.93778755   -2.1187872 4.8712049e-06 
 8084000    1.0594462   -4.3621746   0.50596508   -2.3994709 -8.8328414e-05 
 8085000   0.97624675   -4.0979948   0.32228861   -2.4333669 -0.00011173999 
 8086000    1.3066924   -4.1487488   0.41679435   -1.9352523 -0.00010356736 
 8087000   0.81213137   -4.0163088   0.59021247   -2.3094157 -0.00016720401 
 8088000   0.78679323   -3.9427956   0.78929268   -2.0716623 -6.2199218e-05 
 8089000   0.76168904   -4.0618733   0.42435771   -2.5901931 -0.00031493462 
 8090000   0.93212832   -3.8394496   0.79704454   -1.7607286 1.5826505e-05 
 8091000    1.5818432   -3.8590474   0.50934019   -1.1746727 7.5524709e-05 
 8092000   0.63490333   -3.9264112    0.4550635   -2.5983557 2.4548655e-05 
 8093000    1.1149722   -4.3387388   0.78491764   -2.0207344 -0.00018594104 
 8094000   0.70928111   -4.1938852    0.6023034   -2.6163203 -1.2037951e-05 
 8095000    1.0111073   -4.2976861   0.83294368   -2.0744698 2.7741974e-05 
 8096000    1.5849068   -3.9627486   0.79212859   -0.9913731 0.00039093926 
 8097000    1.3068109   -4.2806427   0.38691881   -2.0968589 -4.6236169e-05 
 8098000    1.2100173   -3.3246243    0.5420307   -1.1188198 0.00013653211 
 8099000    1.0875549   -3.9059902   0.34121185   -2.0693904 -0.00013091679 
 8100000   0.50565834   -3.9917605   0.30775503   -2.9887253 0.00045054203 
 8101000   0.79143643   -3.7713944   0.43530253   -2.2478668 1.9624357e-05 
 8102000    1.0199466   -3.4301974   0.25870566   -1.7690651 -0.00011324595 
 8103000   0.87901572   -4.1531995   0.36651961   -2.5780333 -1.2529366e-05 
 8104000    0.7733157    -4.342598   0.70454494    -2.574744 -8.1114636e-05 
 8105000    1.4035285   -4.0104125   0.36394464   -1.7166162 -0.00016030907 
 8106000   0.84514835   -4.2658557   0.34664027   -2.7571364 -7.1562903e-07 
 8107000    1.1368375   -3.3586357   0.32402803   -1.4714561 5.8192259e-05 
 8108000   0.96181996   -4.1609555   0.35107871   -2.4873744 -0.00020475197 
 8109000    1.5381486   -4.2214882    1.1431573  -0.96337661 -0.00015179089 
 8110000   0.84925772   -3.4935395   0.25904341   -2.0667668 0.00026167841 
 8111000   0.49886281   -3.2032465   0.25635766   -2.2609525 0.00037943853 
 8112000   0.84655051   -3.4556216   0.37201208   -1.9196026 -0.00031733992 
 8113000   0.70237543   -3.4250239   0.29721547   -2.1620422 0.00015930188 
 8114000    1.0481983   -3.8580294   0.33599921   -2.0807575 -3.0159488e-05 
 8115000   0.93391619   -3.4119692   0.43992442     -1.68791 -2.7981582e-05 
 8116000   0.67985405   -3.9170505   0.36547536   -2.6167758 -7.8120698e-05 
 8117000    1.0344577   -4.0333944   0.39120081   -2.2198143 -0.00024326708 
 8118000   0.92035952   -3.1795685   0.58553338   -1.3285408 0.00043148887 
 8119000   0.93292114   -4.0654843   0.49791425   -2.2848034 0.00049106659 
 8120000   0.78279035   -3.5041767   0.57306773   -1.8547722 -2.8184981e-05 
 8121000    1.1442615   -3.9304946   0.73058173   -1.6265533 -0.00024402231 
 8122000   0.73218865   -4.0274348   0.90437256   -2.1163028 -0.00028484755 
 8123000    1.4852177   -4.5513366   0.46147668   -2.0476856 -0.00020612232 
 8124000    1.0122727   -3.5636454   0.64192465   -1.5298459 0.00024715466 
 8125000   0.88155382   -4.0405076   0.39857115      -2.4298 0.00010252903 
 8126000    1.4951658   -4.0993311   0.54512849   -1.4983496 0.00043180399 
 8127000    0.9566998   -4.1661817   0.61862746    -2.232092 -7.9727398e-05 
 8128000   0.85016059   -4.1315536   0.49370744   -2.4688754 -7.6421265e-05 
 8129000    1.3893149   -4.1996364   0.37756036   -1.9117682 0.00016574749 
 8130000    1.1571784   -3.8937417   0.95679604   -1.3458253 3.567838e-06 
 8131000   0.93394748   -4.3365396   0.32040963   -2.7319522 -7.8602905e-05 
 8132000   0.79658123   -3.6979138   0.34839572   -2.2542189 -0.00028668406 
 8133000    1.2863541     -3.59432   0.55270649   -1.2728766 -0.00034506822 
 8134000   0.70353199    -4.074478   0.39473458   -2.7123869 -5.476396e-05 
 8135000    1.0143511    -3.703412   0.56223963   -1.7464396 0.00049449712 
 8136000    1.1587665   -4.3434486   0.24396394   -2.5061808 -5.4913398e-05 
 8137000   0.75513544   -3.4936286   0.58060207   -1.8747153 0.00046251376 
 8138000   0.88165682   -3.6227462   0.52672733   -1.8837408 0.00052958814 
 8139000   0.63490665   -4.0779049   0.54261696   -2.6622912 0.00012116191 
 8140000    1.2688577   -3.9439328   0.53794416   -1.6613093 -0.00029611572 
 8141000   0.85463868    -4.006617   0.33973879     -2.49175 -0.00014166937 
 8142000    1.0311514    -3.922392   0.73735163   -1.7672072 -0.00050168573 
 8143000    1.3158333   -4.4013635   0.42463434   -2.1674584 -3.8853568e-05 
 8144000    1.0668489   -3.8920183   0.98510378   -1.4399972 -0.00014722641 
 8145000   0.73319348   -3.6006853   0.21766727    -2.374877 1.9549019e-05 
 8146000   0.60037778    -3.887193   0.64492287   -2.4167506 -0.00028001326 
 8147000     1.145264    -3.992654   0.55229774   -1.8656182 -0.00022071238 
 8148000    1.2830879    -4.345569   0.28677589   -2.2945473 0.00020067461 
 8149000    1.3265255   -4.1297631   0.36621456    -1.939576 1.5297779e-06 
 8150000   0.80129424   -3.8051071   0.46671119   -2.2366164 0.00027245409 
 8151000   0.98354578    -3.665953   0.19221981   -2.1213577 -0.00018165895 
 8152000   0.86864231   -4.0907802   0.44856096   -2.4478361 6.2251661e-05 
 8153000    1.2790093   -3.9612048   0.83330357   -1.3692633 0.00033627205 
 8154000     1.046767   -3.7259897   0.68417067   -1.6025145 -0.00029048126 
 8155000   0.60289033   -4.2677568   0.48261284   -2.9561698 -2.3423219e-05 
 8156000    1.4175906    -4.227565   0.66586487   -1.6125131 -0.00028171941 
 8157000   0.99979416   -4.2201895    0.2749719   -2.5705006 0.00014180963 
 8158000   0.69608762   -3.6096817   0.65809171   -1.9944696 0.00031214835 
 8159000    1.0936879   -3.8414113   0.30116233   -2.0364281 -3.1149965e-05 
 8160000    1.4022815   -3.7928565   0.82505638    -1.039663 0.00018212263 
 8161000    1.0803219   -3.6963557   0.79774406   -1.4131691 -0.00012671201 
 8162000    1.1277138   -3.7734196   0.29432777   -1.9284854 6.1281976e-05 
 8163000   0.75279784   -3.7228781   0.68667183   -2.0011092 -0.00018657389 
 8164000    1.3080929   -3.8177921   0.49147591   -1.5276884 6.7078274e-05 
 8165000    0.6543183    -4.018629   0.21363145   -2.9053099 -0.00010602023 
 8166000   0.92362974   -3.8492174   0.40319618   -2.1760303 0.00020473383 
 8167000    1.1893218    -4.037871    0.2743852   -2.1281683 -6.4548837e-05 
 8168000   0.96424304   -3.6834166   0.59591192   -1.7616705 0.00022697473 
 8169000    1.1806918   -4.0756755   0.35923217   -2.0929921 0.0001276587 
 8170000    0.7256963   -4.0197478   0.28636674   -2.7355487 -8.5870726e-05 
 8171000   0.92857199   -4.2997003   0.53264527   -2.4902686 6.5292203e-05 
 8172000   0.97743782   -3.4787807   0.47159846   -1.6632052 -0.0001624651 
 8173000   0.75136235    -4.092299   0.66654763   -2.3926281 -0.00060960784 
 8174000    1.4645527   -3.7669507   0.37816905   -1.3750217 0.00021495347 
 8175000    1.1887501   -3.7090725   0.29139375   -1.7831473 0.00020056876 
 8176000   0.88275135   -4.1460768   0.53548878   -2.3968049 -0.00012855573 
 8177000   0.59033361   -3.6249439   0.17548127   -2.6377539 0.0003834018 
 8178000   0.80403053   -3.2504429   0.72001491    -1.424886 -3.8462768e-05 
 8179000   0.84832628   -3.8095239   0.86418389   -1.7788913 0.00013129069 
 8180000   0.77285974   -3.8679257   0.43285352     -2.37239 -2.7460291e-05 
 8181000   0.73883628   -2.5682609   0.32339153   -1.2289695 4.0762707e-05 
 8182000   0.88409181    -3.940282   0.30788749   -2.4167682 -0.00014594656 
 8183000   0.90565299   -3.6450482   0.22045382   -2.1793215 0.00022808956 
 8184000   0.89396604    -3.681179   0.52700461   -1.9249711 7.789684e-05 
 8185000   0.96059769   -3.9781109   0.34450447   -2.3127846 -6.756604e-05 
 8186000    1.0511824   -3.6876065   0.34423172   -1.8979989 -4.2448889e-05 
 8187000    1.5125056   -3.9957899   0.57119523   -1.3448994 -8.4379085e-05 
 8188000   0.96969689   -3.9427335   0.46224013   -2.1471601 -0.00021650305 
 8189000    1.1445502   -4.2453053   0.22153568   -2.4500131 -7.6813469e-06 
 8190000   0.82895578   -3.7546146   0.42262942    -2.192171 -0.00018889339 
 8191000    1.2223193    -4.253262   0.54183644   -2.0307365 -0.00014092511 
 8192000   0.98056912    -4.369456   0.52811543   -2.4930581 8.7078148e-05 
 8193000    1.1574882    -3.886275   0.46373873   -1.8309901 0.00031673909 
 8194000   0.77549158   -4.1888261   0.72566764   -2.3968575 -0.00037221248 
 8195000   0.95474639   -3.9914851   0.63668977   -2.0420191 -0.00018710251 
 8196000    1.1521647   -4.2726567   0.36427476   -2.3241555 -0.00023959647 
 8197000    1.1791969   -3.8308209   0.20024075   -2.0091844 0.00011754524 
 8198000   0.86488919   -4.0967721    0.4623047   -2.4452448 -0.0002289377 
 8199000    1.3418205   -3.9175711   0.44407807   -1.6284898 4.7592766e-06 
 8200000   0.78517426   -3.4694357   0.24334907    -2.146472 0.00063931709 
 8201000   0.80766742   -3.7527095   0.30936286    -2.332804 0.00039851318 
 8202000   0.74801815   -3.1433615   0.27450619   -1.8403304 9.7923032e-05 
 8203000    1.0947634   -4.2454383   0.57545423   -2.1646844 -0.00014892254 
 8204000   0.77680978   -4.0644966   0.28889674   -2.7074864 -4.727601e-05 
 8205000    1.0021695   -4.0246866    0.3040054   -2.3426982  0.000124958 
 8206000   0.98604579   -4.1552236   0.25301436   -2.5463963 0.00055648837 
 8207000    1.1998183   -3.6383054   0.29091497   -1.6976403 -9.8840532e-05 
 8208000   0.60635323   -4.0174902   0.54620573   -2.6375488 -7.2850976e-05 
 8209000    1.0308423   -3.9815674   0.55138344   -2.0127759 -5.0806304e-05 
 8210000    1.1589755   -3.8952612   0.43726949   -1.8644004 0.00011222703 
 8211000    1.0244084   -3.9071004    0.2821964   -2.2163425 0.00024124357 
 8212000   0.55225284   -4.1972181   0.25217041   -3.1857001 6.7892293e-05 
 8213000    1.4003083   -3.9836523   0.50684236    -1.551386 0.0001676937 
 8214000    1.1464673   -4.0536149    0.2134348   -2.2637875 0.0006914578 
 8215000   0.87118684   -4.0093888   0.34196446   -2.4695424 -1.7817994e-05 
 8216000   0.71900069   -4.0945571    0.4909901   -2.6149411 -0.00016702793 
 8217000    1.0352744   -4.1913815   0.57367685   -2.1942023 -0.00022211599 
 8218000    1.1149386   -4.1067194   0.40937596   -2.1643029 -0.00018258261 
 8219000    1.1260351   -4.2787121   0.75000414   -1.9804098 -0.00042823956 
 8220000   0.64803945   -3.8615485   0.85281125    -2.117683 -0.00048793604 
 8221000   0.57951913   -3.2759518   0.47385569   -2.0052573 -0.00015664337 
 8222000   0.83845991   -4.0676919   0.52228611   -2.3925234 8.7652597e-05 
 8223000    1.1961565   -3.9427245   0.64942187   -1.6485875 -0.00015605491 
 8224000   0.58473507   -4.0431839   0.19194576   -3.0472274 1.2401059e-05 
 8225000   0.84626495   -4.1248772   0.22267424   -2.7385886 0.00018887667 
 8226000   0.77917023   -4.1662242   0.49065831   -2.6042068 0.00023070498 
 8227000   0.75034937   -3.3309504   0.82886339   -1.4703566 -0.00024980939 
 8228000   0.68318621   -3.9113065   0.36671526   -2.6052102 -0.00013268945 
 8229000   0.75395675   -4.1898296    0.4332519   -2.7198872 0.00033515803 
 8230000    1.2782351   -3.9590472   0.64044833   -1.5610256 0.00011946404 
 8231000   0.90561086   -4.1577828   0.41438386    -2.498184 -0.00010723573 
 8232000   0.77561469   -3.9906482   0.27727378   -2.6469042 -0.00011480319 
 8233000   0.74242372   -4.0526136   0.55041901    -2.481362 -0.00019363216 
 8234000   0.99342323   -3.8911164   0.55346253   -1.9716969 0.0001710921 
 8235000   0.86653126   -3.5097128   0.55086025   -1.7673721 -0.00027733116 
 8236000   0.95060013    -4.013894   0.64835663   -2.0584622 -7.2456648e-05 
 8237000   0.80455224   -3.6961175   0.41988753   -2.1699707 0.00023411557 
 8238000   0.70719525    -4.186212   0.50786259   -2.7059559 -2.8304442e-05 
 8239000      1.30231   -4.0885757   0.78269694   -1.5152025 -0.00030726816 
 8240000    1.0121643   -4.1744223   0.50687808   -2.2758183 -0.00018350579 
 8241000   0.85116636   -4.1174858   0.62145703    -2.325675 -0.00010362462 
 8242000    1.1454761    -4.516511   0.56728921   -2.3741921 -0.00010741821 
 8243000   0.80269927   -3.9305055   0.42880431   -2.3979897 -1.8267575e-05 
 8244000   0.96644176   -4.0934409   0.52919711   -2.2353864 7.7961449e-06 
 8245000    1.0714947   -3.9183147   0.23588366   -2.2091258 0.00015513101 
 8246000    1.1190913   -4.3731228   0.57973936   -2.2546329 0.00042712808 
 8247000    1.0216828   -4.0070936   0.56731947   -2.0349603 0.00012265846 
 8248000    1.4587738   -3.7952632   0.67939247   -1.1100567 5.6519233e-05 
 8249000   0.73095735   -3.8601058   0.73250102   -2.1225385 -0.00030838061 
 8250000    1.2470083   -3.7326783   0.20282927   -1.8152126 -0.00027438358 
 8251000   0.93806754   -3.8164413   0.42422125   -2.1023772 0.00022406399 
 8252000   0.61503279    -4.117528   0.31658947   -2.9552685 -0.00034106978 
 8253000    1.3374239   -4.1474224   0.18409108   -2.1243735 0.0001071462 
 8254000   0.57748331   -4.2773811   0.38524809   -3.0980934 -0.00033434125 
 8255000   0.95589686   -4.0899347   0.31906064   -2.4565159 3.2963567e-05 
 8256000    0.7495763   -3.7557665   0.29701511    -2.428084 0.00032960332 
 8257000   0.95634326   -3.5857381   0.51895238   -1.7518137 0.00015951541 
 8258000   0.64299444   -3.8235654    0.3507429   -2.5887052 0.00018361542 
 8259000   0.69668209    -4.190294   0.31927111   -2.9130851 0.00021882506 
 8260000   0.76631916   -3.7921455   0.42274055   -2.3157161 -0.0003652609 
 8261000   0.79524949   -4.0084509   0.45939674   -2.4555861 0.00029422304 
 8262000    1.0796352   -3.6607229   0.37120047   -1.8050241 -6.5353915e-06 
 8263000    1.3375504   -3.9275729   0.36720277   -1.7212383 -5.0006913e-06 
 8264000   0.70861473   -3.9498578   0.54252947   -2.4329831 0.00024718101 
 8265000     0.885579   -4.2297394    0.4071104   -2.6049579 -0.00025334003 
 8266000    1.0150921   -3.9480012   0.36477625   -2.1874733 -4.0739754e-05 
 8267000    1.0624243   -3.8333785   0.47931389   -1.8932312 3.7426306e-05 
 8268000   0.79489263   -4.2630212   0.22667946   -2.9433644 0.00013092166 
 8269000    1.1703461   -3.8868656   0.57694662   -1.7006931 5.6728096e-06 
 8270000   0.88290075   -4.0794109   0.48254603   -2.3828764 -0.00019883606 
 8271000    1.3625667   -3.7914199   0.31530719   -1.6025836 0.00016819456 
 8272000      1.43838   -3.9693704   0.45478739   -1.5368105 -9.1591595e-06 
 8273000    1.3142691   -3.5133231   0.25038601    -1.455817 0.00025914138 
 8274000   0.93183878   -3.9784579     0.879696   -1.8174836 -0.00025131704 
 8275000    1.2844502   -3.4240611   0.41397755   -1.2439645 0.00011446361 
 8276000   0.62892227   -3.7269803   0.28790002   -2.5743122 6.8621171e-05 
 8277000    1.0619021    -3.592569   0.25495326   -1.8775004 0.00010624642 
 8278000   0.92893632   -3.9391593   0.44196785    -2.219904 0.00012074369 
 8279000   0.72172602   -4.1932686    0.3400021   -2.8608932 0.0001118357 
 8280000    1.0015647   -3.6769966    0.4069465   -1.8928986 9.1301468e-05 
 8281000    1.2337746   -4.3218249   0.68125999   -1.9441248 8.9580007e-05 
 8282000    1.6456246   -3.6608356   0.78574615  -0.61235557 -0.00034341258 
 8283000   0.94247872    -3.939836   0.30626821   -2.3376595 0.00057085292 
 8284000    1.0360384   -3.4791888   0.29337447   -1.7612615 7.1010486e-05 
 8285000    1.5985761    -3.843904    0.6897628  -0.95609911 0.0005120261 
 8286000    1.0955657   -2.9500117   0.26019583    -1.183413 -8.916204e-05 
 8287000    1.1969917   -4.3605807   0.66443346   -2.0502836 -5.6593586e-05 
 8288000   0.89741732   -4.3981945   0.72097688   -2.4432688 -7.0412742e-05 
 8289000    1.1548541   -3.7715143   0.50231955   -1.6812704 -3.4807823e-06 
 8290000   0.76969807   -3.9995995   0.39202187   -2.5492427 -0.00033046698 
 8291000    1.0771065   -4.1141652   0.20969729   -2.4234464 1.2325517e-05 
 8292000    1.2924123   -4.2838039   0.47031612   -2.0364209 -3.3224063e-05 
 8293000    1.2675335   -4.3366359    0.3399605   -2.2538167 0.00031530932 
 8294000    1.1025595   -3.1320402   0.39020258   -1.2258182 0.00017472503 
 8295000    1.0490501   -4.1829112   0.38674284   -2.3537245 1.971682e-06 
 8296000    1.0149149   -4.0547805   0.30134182   -2.3579306 -5.1109883e-05 
 8297000    0.9939101   -4.1806582   0.34550548   -2.4685264 1.1002403e-05 
 8298000    1.5314287   -3.9149287   0.40030455   -1.4089097 0.00010031058 
 8299000   0.97218954   -3.9941541   0.29325374   -2.3641397 -9.9870186e-05 
 8300000   0.72950584   -4.0253968   0.36527908   -2.6570472 0.00025084059 
 8301000     1.100347   -3.6795265    0.1476129   -2.0189365 -8.521007e-05 
 8302000    1.0293008   -2.5189318   0.27869967  -0.82494356 0.00029185579 
 8303000   0.79238163   -3.7054925   0.48705784   -2.1289099 -0.00034384656 
 8304000     1.232119   -3.8617088   0.41912086   -1.7484242 7.975767e-05 
 8305000    1.0447874   -4.2096727   0.21445755   -2.5586325 -6.4403747e-05 
 8306000   0.82782077    -3.532736    0.8500983   -1.5443842 -0.0001647099 
 8307000   0.83050031   -3.6760286   0.24156923   -2.2925215 0.00049748319 
 8308000   0.97459651   -3.7185786    1.0451461   -1.3333623 4.2489593e-06 
 8309000    1.0452717   -3.8733759   0.48068601   -1.9554414 0.0001945674 
 8310000   0.76229441   -4.1593638   0.56507918   -2.5461298 -0.00011801806 
 8311000   0.74087774   -4.0415316   0.35552601   -2.6672987 0.00037774074 
 8312000   0.77748448   -4.1091413   0.74335563   -2.2967445 -0.00026694115 
 8313000   0.95253331   -3.5059806   0.58411815   -1.6121291 0.00018482238 
 8314000    1.1827009   -3.7272584   0.32043863    -1.780606 0.00036648598 
 8315000    0.9385351   -4.2554879   0.52553273   -2.4394694 -4.8169421e-05 
 8316000   0.82604849   -3.5759567    0.5475422   -1.8925979 -2.9047722e-05 
 8317000    0.9280532   -4.0737126   0.54520063   -2.2524388 -2.0818795e-05 
 8318000    1.3415109   -4.2204097   0.86481278   -1.5110195 -7.4404954e-05 
 8319000    1.8243283   -4.3545406   0.42242985   -1.4236593 0.00036387479 
 8320000     1.301941   -4.2307553    1.0294855    -1.411101 -0.00042546452 
 8321000   0.73370727   -3.7517014   0.55990519   -2.1829488 -0.00025993774 
 8322000    1.1916979   -4.2946333   0.72381023   -1.9322385 -0.00015363706 
 8323000    1.0326129   -3.6696441   0.51720426   -1.7325972 -2.5534099e-05 
 8324000    1.4719618   -3.9277432   0.20295426   -1.7008414 0.00045081496 
 8325000    1.4376887   -3.0554854   0.58794717  -0.49071622 6.6851239e-05 
 8326000    1.0575472   -3.7398804    0.5293828   -1.7563703 -0.00033027766 
 8327000    1.1664529   -3.8721931   0.54985081   -1.7184696 9.5964027e-05 
 8328000    1.0350174   -4.0097739   0.47317772   -2.1134473 0.00039073915 
 8329000    1.4042978   -3.7789443    0.4078069    -1.440228 0.00021356502 
 8330000   0.70591462   -3.6888325    0.5923101   -2.1258898 7.9007095e-05 
 8331000    1.2537918   -3.8141089    0.8642831   -1.2258622 -0.00021032015 
 8332000     1.276691    -3.858179   0.22274048   -1.8799883 0.00033393409 
 8333000    1.1631623   -3.7989821   0.24537804   -1.9542559 0.00037259025 
 8334000   0.85455773   -3.3230472   0.33900983   -1.8090205 -2.0255784e-05 
 8335000   0.64924632   -3.4961515    0.6884932   -1.9149446 -0.00023233629 
 8336000     1.033232   -3.5248976   0.22027572   -1.8839279 0.00051429516 
 8337000    0.6844389   -3.6823805   0.59226088   -2.1490161 -0.00018631242 
 8338000   0.98581637   -3.8898231   0.60280344   -1.9315221 -0.00032627397 
 8339000    1.2717762   -3.6217354   0.79141995   -1.0816231 -0.00023735729 
 8340000    1.1032707   -3.6978494   0.49417033   -1.6866819 0.00012296935 
 8341000   0.82970933   -4.4672761   0.35878383    -2.967642 -0.00017616362 
 8342000   0.86720721   -3.6854959   0.51218538   -1.9809006 6.1359889e-05 
 8343000    1.3245912   -4.1684789   0.81711008    -1.530056 -0.00029447286 
 8344000   0.89782249   -4.0107905   0.34092869   -2.4353559 -9.3785796e-06 
 8345000    1.2185239   -3.5689369     0.481408   -1.4120585 -7.5206684e-05 
 8346000   0.90312064   -3.9278296    0.2232976   -2.4627412 0.00041337855 
 8347000   0.62518562   -4.1862686   0.80031868   -2.5263197 0.0001564474 
 8348000    1.0889764   -4.0348634   0.63706759   -1.9004533 0.00043377008 
 8349000   0.56065123   -4.0442341   0.31494011   -2.9583985 -0.00014649391 
 8350000   0.88477029    -3.650302   0.82249851   -1.6112444 -0.00041920083 
 8351000   0.91436345   -4.0250631   0.19118054   -2.5766328 -1.043439e-05 
 8352000    1.5629459   -4.0387546   0.41300045   -1.4767036 -6.7828813e-05 
 8353000   0.83541892   -4.1800772   0.65054648   -2.3808297 -0.00020072445 
 8354000    1.2730349   -4.0409887   0.26605573     -2.02451 -0.00014727751 
 8355000   0.80349167   -4.2583957   0.46310818   -2.6904865 -0.00016487071 
 8356000    1.4674245    -4.115915   0.25388115   -1.8443252 0.00025284593 
 8357000   0.72511181   -3.9328964   0.27469793   -2.6611697 0.00015628353 
 8358000    1.1830411   -3.7972213   0.79225998   -1.3782799 0.00036407359 
 8359000    1.2886344   -4.0909472   0.75458227   -1.5644926 0.00017641832 
 8360000   0.91037419   -3.7340267   0.26577467   -2.2164875 -6.0475223e-05 
 8361000    1.0705459    -3.396349   0.77514916   -1.1491992 0.00013789128 
 8362000   0.94894196   -4.3321403   0.95722802   -2.0701171 -0.00017584141 
 8363000   0.81461144   -4.3734967   0.87638988   -2.3770161 -0.0001260035 
 8364000   0.96360737   -4.3405795   0.57724165   -2.4383777 -0.00029431521 
 8365000     1.206956     -3.85792   0.42777254    -1.770583 0.0001976269 
 8366000   0.72117872   -3.8885718   0.31217588   -2.5847752 0.00043279933 
 8367000   0.95120351   -2.8525185   0.49850618   -1.0461075 -0.00048150612 
 8368000   0.94158383   -4.2395788   0.58434209    -2.360559 -0.00020485518 
 8369000    1.6288128    -4.015416   0.26313901   -1.5126594 0.00016548011 
 8370000    1.3135365   -4.1635543   0.48208683   -1.8753548 -0.00035823901 
 8371000    1.3578386   -4.0537308   0.33060042   -1.8561024 0.00044975718 
 8372000   0.99317513   -4.2923037   0.56530796   -2.3613799 -5.3079194e-05 
 8373000     1.384314   -3.2340649   0.47720235  -0.85343085 0.00024161188 
 8374000   0.95977864   -3.6995586   0.55249159   -1.8273714 5.9484309e-05 
 8375000   0.79842165     -3.99215    0.7970422    -2.097278 -0.00012109013 
 8376000    1.2330079   -3.5437734   0.70401419   -1.1443733 0.00028000605 
 8377000   0.80497752    -3.947995   0.54439338   -2.2967575 -0.00021228908 
 8378000   0.98364758   -3.8460085   0.46597463   -2.0275185 0.00038900926 
 8379000    1.0266665   -4.4069123   0.78033955   -2.2149063 -4.8159399e-05 
 8380000   0.72862854   -3.2017233   0.39808054   -1.8017786 0.00014959714 
 8381000    1.0089216   -4.0321984   0.63764518    -2.007286 -0.0002464396 
 8382000   0.83192262   -3.9851516   0.14078486   -2.7004731 -0.00010503982 
 8383000    1.1688344    -3.969979   0.52953974    -1.833292 0.00031852813 
 8384000      0.84944   -3.5847794   0.52335547    -1.893444 0.00017107774 
 8385000   0.97235371   -3.5879541   0.11620094   -2.1347668 0.00037144601 
 8386000   0.48775804   -4.0838413   0.36003108   -3.0531429 3.6727371e-05 
 8387000    1.4081811   -4.1468884   0.20649101   -2.0041484 -2.7393061e-05 
 8388000   0.77396669   -3.8935503   0.62307555   -2.2062705 -0.00044877622 
 8389000   0.81233952   -3.6726677   0.40263619   -2.1530646 -7.8679638e-05 
 8390000    1.1007797   -4.1268016   0.48730328   -2.1259263 0.00022429874 
 8391000   0.82242009   -3.8718824   0.22099227   -2.5200625 0.00024948489 
 8392000   0.91840872   -3.9394643   0.59117381   -2.0854784 -4.1768016e-05 
 8393000     1.669086   -4.1797717     0.457685   -1.4270934 0.00051825528 
 8394000    1.0612949    -4.144575    0.3029157   -2.3823789 0.00015226842 
 8395000    1.4082976   -3.2102429   0.55747194  -0.71636173 -0.00043657812 
 8396000   0.85712678   -4.0649877   0.45021725   -2.4362211 -8.8212483e-05 
 8397000    1.3998038   -3.6253703    0.5515708   -1.1490692 -0.00023287199 
 8398000   0.64333567   -4.1338122   0.25453238   -2.9946932 -0.00013370659 
 8399000   0.95313063   -3.7655599   0.71757619   -1.7374291 -0.00020952647 
 8400000    1.2196922   -3.7247291   0.43232732    -1.615325 -0.0001871831 
 8401000    1.0746209   -4.3310136   0.36359671   -2.4898131 0.00010480362 
 8402000    1.1336118   -3.9367155   0.48157395   -1.8964253 -0.0001750016 
 8403000   0.78841689   -4.3443275   0.64513743   -2.6151169 9.6342142e-07 
 8404000   0.98061865   -3.8427381   0.78906308   -1.7053244 -0.00024287239 
 8405000   0.92360803   -3.0130252    0.4912242     -1.25184 -0.00032416274 
 8406000   0.85136614   -3.6334648   0.44764086   -2.0151955 0.0006406371 
 8407000   0.77604216   -3.9753082   0.57541807   -2.3328322 9.2914427e-05 
 8408000   0.75654879   -4.4943168   0.65193513   -2.8021271 -3.8779667e-05 
 8409000    1.2733201   -3.7007102   0.44447699   -1.5054181 0.00010786696 
 8410000     1.621803   -4.4210093   0.99548439   -1.1955458 -0.00025456182 
 8411000   0.97282976   -3.7435643   0.72630573   -1.6796176 8.0272068e-05 
 8412000     1.243273   -3.5174875   0.38844691   -1.4195402 -9.8335526e-05 
 8413000   0.94277586   -4.2781365   0.49287735   -2.4889424 -0.00032155504 
 8414000   0.83361604    -3.530566   0.35386873   -2.0304752 0.00054589735 
 8415000   0.67442732   -4.2139381   0.60504229   -2.6815583 -0.00027434815 
 8416000   0.98422299   -3.8913483   0.28597091   -2.2520708 0.00033257234 
 8417000     1.327598   -3.6495173   0.86134935  -0.96272078 8.6186427e-05 
 8418000   0.98224037   -4.0986835   0.24390405   -2.5041989 7.4032907e-05 
 8419000   0.87381133   -3.3409038   0.32141889   -1.8179943 -0.00017991497 
 8420000    1.2899618   -3.9954136    0.4506409   -1.7710753 -0.00012221095 
 8421000    1.0912561   -4.0510459   0.47800873     -2.07256 0.00051836329 
 8422000   0.77101671   -3.7337886   0.31742005   -2.3562206 -0.00012234607 
 8423000    1.1623352   -3.5592492   0.51005989   -1.4509784 0.00022281351 
 8424000   0.78747784   -3.9354198   0.70144091   -2.1511968 0.00019606724 
 8425000    1.7039499   -4.1456327   0.69177797   -1.1109236 -0.0002326827 
 8426000    1.2126876   -4.1463166   0.29570723   -2.1831639 -5.4920021e-05 
 8427000   0.74503224   -3.8520326   0.28048255   -2.5471307 6.2975703e-05 
 8428000    1.2084024   -3.9077397   0.93366539    -1.312521 8.3023467e-05 
 8429000    1.1437756   -3.1175038   0.88253413  -0.66227823 -0.00013391446 
 8430000    1.1396278   -4.2719583   0.72199971   -1.9829703 -0.00031382741 
 8431000   0.74619619   -3.6563433   0.83473865   -1.7955849 0.00015829752 
 8432000     1.285005   -3.8427396   0.56800843   -1.5078493 -0.00016577326 
 8433000      1.20048   -3.9835586    0.7166394   -1.6162593 0.00020231014 
 8434000   0.90293826   -3.7889261   0.26132099    -2.286065 6.7613554e-06 
 8435000    1.1895305   -3.5238864   0.40471354   -1.4835684 0.00068228044 
 8436000     1.155404   -4.1335027   0.45696556   -2.0878566 2.7083135e-05 
 8437000    1.1349644   -3.7183254   0.33694612   -1.8208032 0.00013687092 
 8438000   0.84884979   -3.9005577   0.50337354   -2.2300157 -0.00024989044 
 8439000   0.87393334   -3.5319379   0.35765261    -1.972627 -9.5574866e-05 
 8440000    1.0302449   -3.8561968   0.15402241   -2.2855877 0.00025511149 
 8441000     1.669311    -4.290116   0.59448142   -1.4003319 -0.00023166885 
 8442000   0.97607885   -4.0412905   0.51741059   -2.1817715 5.8457569e-05 
 8443000   0.82784025    -3.606079   0.52293288   -1.9448657 -0.0001066747 
 8444000   0.97472377   -4.1972521   0.49109698     -2.36591 -0.00022091058 
 8445000   0.85699643   -3.7028409   0.65589343   -1.8685774 -7.6967207e-05 
 8446000   0.82725951   -3.9434195   0.49190153   -2.3140362 -1.6800963e-06 
 8447000   0.61220477   -3.7094252   0.40509072    -2.462553 -0.00026198056 
 8448000   0.92483831   -3.5237794   0.65863697   -1.5934898 -0.00049714215 
 8449000   0.70553723   -3.7371498   0.69305875   -2.0739773 -0.00017469732 
 8450000   0.66598283   -3.7099585   0.59627427   -2.1979579 -1.3115763e-05 
 8451000   0.78771741   -3.1021971   0.48684105   -1.5322446 -7.6318421e-05 
 8452000   0.81266769   -4.3290118   0.84646126   -2.3651325 -0.00024456692 
 8453000    1.3214176    -4.442016   0.43004596   -2.1950208 -0.00020728021 
 8454000    1.5718099     -3.85837   0.38841757   -1.3087139 0.0006345854 
 8455000   0.84654221   -3.9808172   0.61035596   -2.2064657 -0.000234056 
 8456000   0.91368023   -2.8888401   0.55860217   -1.0739276 0.00021749031 
 8457000    1.1313563   -4.2191218   0.46036333   -2.2031435 0.00036492959 
 8458000    0.6816753   -3.8993554   0.26782441   -2.6942274 -0.00026125502 
 8459000    1.0897134   -3.8333438   0.36640556   -1.9685823 -3.3107761e-05 
 8460000    1.0083533   -4.3195591   0.61528258   -2.3177908 -4.2673593e-05 
 8461000   0.82811649   -4.2037872    0.3573326   -2.7077944 -7.1987704e-05 
 8462000     1.026167   -4.2762543   0.67000914   -2.1952655 -2.8422676e-05 
 8463000   0.63381392   -4.0444743   0.73174047   -2.4412397 0.00023314656 
 8464000    1.1258343   -4.1342387   0.63364332   -1.9525732 1.5071339e-05 
 8465000     1.995445   -3.8025383   0.53069297  -0.52810851 -0.00020709994 
 8466000   0.85344367     -3.78634   0.27267744   -2.3401775 -5.2224481e-05 
 8467000   0.63934865   -4.0614118   0.94294447   -2.2393629 -0.00056944206 
 8468000   0.87944734   -4.0490655   0.23584567   -2.6039798 -3.4126551e-05 
 8469000   0.81397586    -4.226565   0.44443404   -2.6629141 -0.00030433029 
 8470000    1.0432792   -3.8115566   0.86653068    -1.510517 -0.00042273358 
 8471000   0.70904182   -3.5451721   0.29051792   -2.2797216 -5.1360081e-05 
 8472000    1.6207527   -3.6551854   0.36340022   -1.0632503 0.00037574347 
 8473000   0.48629682   -4.0616365   0.62704781   -2.7659306 4.5999066e-05 
 8474000   0.96506236   -4.2743369   0.52228296   -2.4250932 -0.00021703559 
 8475000   0.73424849   -3.9193607   0.38423179   -2.5255372 0.00010527973 
 8476000   0.66561455     -3.89793   0.82283312   -2.1598768 -0.00039951445 
 8477000    1.7453873   -4.1518489   0.47986566   -1.2720758 -0.00019702395 
 8478000    1.2361387   -4.1464911   0.59817621   -1.8486242   8.0665e-05 
 8479000   0.92042337   -3.5915667   0.63413605   -1.6918485 0.00021218418 
 8480000    1.0473681   -4.1472815   0.18799111   -2.5191592 0.00016211403 
 8481000   0.94879571   -4.1389259   0.32316968   -2.5111622 0.00011756438 
 8482000     1.102702   -4.0949928   0.92940262   -1.6493749 -0.0003873892 
 8483000    1.0676569   -3.9499402   0.53783798   -1.9440739 0.00011846212 
 8484000    0.9345798   -3.6474735    0.4159677   -1.9464586 -9.4080031e-05 
 8485000   0.98409894   -3.8280108   0.24845254   -2.2264222 0.00021005959 
 8486000   0.76134283   -3.8675778   0.36585296   -2.4548785 -0.0003668714 
 8487000    1.2323038   -3.7938566   0.83560938   -1.2638295 -0.00023006759 
 8488000    1.0491104   -4.2826652   0.25988051   -2.5802579 -0.00011248833 
 8489000    1.1577353   -3.6148519   0.47314305   -1.5498228 -0.00011616243 
 8490000     0.940345     -3.89137   0.69792321   -1.9004725 2.3894579e-05 
 8491000   0.96867622    -4.174658   0.53470917    -2.308019 2.8200878e-06 
 8492000   0.82029305   -4.1054459   0.38647107   -2.5910719 -0.00010241267 
 8493000   0.83382356   -4.3163747   0.69105819   -2.4788091 -0.00012522954 
 8494000    1.1354397   -3.8555816   0.36793291   -1.9264191 0.00011578102 
 8495000    1.0720272   -3.6909575   0.62585361   -1.5910666 3.7892583e-07 
 8496000   0.66217319   -3.9455507   0.60705076   -2.4280118 -0.00027447292 
 8497000    1.0260061   -4.1425996   0.34515992   -2.3866813 0.00018325105 
 8498000    1.1943734   -3.5801269   0.41784871   -1.5200148 -3.5354027e-05 
 8499000    1.1093557   -4.0355845   0.53839751   -1.9718228 0.00017684743 
 8500000    1.1665462   -4.1443322   0.66833252   -1.8719986 -8.979157e-06 
 8501000   0.82406809   -3.9678814   0.39820023   -2.4365876 0.00017525138 
 8502000    1.1031962   -4.2653313   0.27174132   -2.4766952 0.00011747434 
 8503000    1.0607722   -4.1880607   0.45979362   -2.2697053 -9.1280519e-05 
 8504000   0.86083947   -4.3326465   0.45238532   -2.6966069 0.00015472332 
 8505000   0.77384798   -3.9287872   0.28235422    -2.582392 -9.9260163e-05 
 8506000    1.0598826    -3.861665   0.38368272   -2.0206437 0.00035097083 
 8507000   0.87318466    -4.088295   0.30413042   -2.5835357 0.00038431763 
 8508000   0.93970059   -4.3452635   0.61683551   -2.4363397 -0.00023558115 
 8509000   0.84046295   -3.5181477     0.472427   -1.8900842 -0.00025042042 
 8510000    1.4995271   -3.4556393   0.49095856  -0.90283098 0.00049520175 
 8511000   0.89941231   -3.9474386   0.37388015   -2.3368666 -7.4240722e-05 
 8512000   0.88087403   -3.7619502   0.75025948    -1.800489 4.2735824e-05 
 8513000   0.83374252   -3.7799471   0.35013706   -2.2834141 0.00024749235 
 8514000    1.1250883   -4.0706572    0.2253945   -2.2982663 0.00023443131 
 8515000   0.76171684   -3.8587604   0.50002024   -2.3113795 -0.00038943632 
 8516000    1.7722742   -4.1122613   0.67435101   -1.0010332 -0.00015146762 
 8517000    1.0514732   -4.0005232   0.42408236   -2.1306651 -0.00022333653 
 8518000   0.56607447   -3.7093308   0.34798055   -2.5829978 0.00012181092 
 8519000    1.1903554   -4.0747244   0.47045261   -1.9675331 -5.3237297e-05 
 8520000    1.1282593   -3.9960844   0.20357129   -2.2411566 0.00050710462 
 8521000   0.75272197   -3.8624289   0.53881813   -2.2886181 -0.00036254436 
 8522000    1.0348842   -3.9294019   0.78133629   -1.7250998 4.8186992e-05 
 8523000    1.0194236    -4.171438    0.4373971   -2.3323334 -3.407318e-05 
 8524000    1.3307599   -3.9586022   0.57121096   -1.5575964 0.00034094375 
 8525000   0.90406393    -4.218998    0.6963539   -2.2795562 -6.8381414e-05 
 8526000   0.76800153   -3.9387384   0.39892237   -2.4838139 0.00031468971 
 8527000    1.6978622   -4.0162491   0.26521343   -1.4164751 -8.9985126e-05 
 8528000   0.57224259   -3.8171514   0.43187786     -2.59844 0.00043289909 
 8529000   0.83765304   -3.9662577   0.58919177   -2.2252931 -0.0002394164 
 8530000   0.59070209   -4.2381588   0.75207565   -2.6738677 7.4283439e-05 
 8531000    1.4756565   -3.8811476   0.36469222   -1.4874276 8.1829791e-05 
 8532000   0.76115872   -3.9988908   0.35744277   -2.5948548 -0.00019439549 
 8533000    1.1217288   -4.4984638    0.5375033   -2.4185834 -2.2270098e-06 
 8534000   0.95462829   -4.1419586   0.40942674    -2.419918 -0.00025261995 
 8535000    1.1354473   -4.2852702   0.43494937   -2.2890807 2.7891776e-05 
 8536000   0.83193321   -3.9588798   0.28512894   -2.5298427 -9.6533478e-06 
 8537000    0.7616405   -4.0529727   0.59243537   -2.4132816 0.00010349697 
 8538000   0.90741183   -4.3341173   0.38223427   -2.7041918 -0.00016417503 
 8539000   0.87834473   -3.7417511   0.27124683   -2.2627803 -0.00013144674 
 8540000    1.0140863   -4.2328845   0.17574289    -2.662773 -3.9933029e-05 
 8541000   0.98947538   -4.1213737   0.59503985   -2.1658052 0.00023869584 
 8542000    1.5891446   -4.0900159   0.68087257   -1.2240695 8.8044369e-05 
 8543000    1.1270854   -3.8331514   0.33068123   -1.9527278 0.00038511476 
 8544000   0.60368795   -3.8649236    0.4664858   -2.5683668 8.6148119e-05 
 8545000    1.0640551    -3.680651   0.72341543   -1.4941598 3.5640536e-05 
 8546000   0.73383496   -3.6011075    0.6226934    -1.969391 0.00024444677 
 8547000   0.80295657   -3.9191342   0.35899366   -2.4560752 -0.00013459952 
 8548000    1.1350799   -3.9548069   0.31118718   -2.0828849 0.0004920138 
 8549000   0.97356759   -4.1253121   0.28321372    -2.503443 0.00020421631 
 8550000    1.7945777   -4.1392669   0.64566955   -1.0260529 3.0192545e-05 
 8551000   0.99695637   -3.8365161   0.58067436   -1.8850268 -0.00030395632 
 8552000   0.89809384   -4.2196864   0.29939844    -2.685409 0.0002093002 
 8553000    1.1777611   -4.0850156   0.36815287   -2.0974412 -0.00015377216 
 8554000   0.97115853   -4.1072549   0.14783217   -2.6240797 0.00012580693 
 8555000   0.93974826   -3.8696087   0.52026146   -2.0571933 0.00013282918 
 8556000    1.0081819    -4.108277   0.93764382   -1.7843831 -8.7334112e-05 
 8557000     1.298099   -4.0144959   0.32766338   -1.9019463 0.00013363896 
 8558000   0.83859664   -4.1836485   0.29081539   -2.7397627 0.00025335532 
 8559000    1.2218625   -4.0284728   0.41524658   -1.9331653 4.2594542e-05 
 8560000   0.77938074   -4.1814606   0.26468759   -2.8451245 0.00015527329 
 8561000    0.8314239    -4.289534    0.5946732   -2.5516529 -0.0002396781 
 8562000   0.45538234   -3.4406737   0.25739858   -2.5571244 -0.00038668143 
 8563000    1.2379714      -4.0344    0.5018542   -1.8303351 -0.00020763937 
 8564000    0.8013573   -3.3917993   0.53839412   -1.7515389 -0.00021111934 
 8565000    1.0166598   -3.9163487   0.21076902   -2.3076725 -2.2688028e-05 
 8566000    1.3428923   -3.6024939   0.37835513   -1.3776618 -0.00019344716 
 8567000    1.1342568    -3.769793   0.21804629   -1.9921436 -6.3354187e-05 
 8568000    2.2010552   -3.9282543   0.42262132  -0.47918202 0.00013679477 
 8569000    1.0232203   -4.1736419   0.46783174   -2.2988823 0.00015422888 
 8570000   0.82968308   -4.1481606   0.48402984   -2.5233165 -9.3841151e-05 
 8571000    1.2429625   -3.9205825   0.26013696   -1.9513721 0.00016120963 
 8572000   0.73978357   -4.1932202   0.37136531   -2.8046525 0.00010317499 
 8573000    1.4172724   -4.0090583   0.30661109   -1.7536976 -1.5794666e-05 
 8574000   0.81098175   -4.4110672   0.53405589   -2.7619113 0.00031884022 
 8575000   0.92619967   -3.5246188   0.31404704   -1.9370472 0.00010692636 
 8576000    1.2004748   -4.0873176   0.27807033   -2.1585944 -0.00014220324 
 8577000    0.5605368   -3.8906234    0.4426659   -2.6772194 -8.6608323e-05 
 8578000    1.2350678    -4.459263    0.5402371   -2.2208077 -5.3359789e-06 
 8579000    1.1566175   -3.8801722   0.74797753   -1.5418457 -0.00011632931 
 8580000    1.1750226   -3.5381138   0.48618995   -1.4362678 7.6535519e-05 
 8581000    1.0089786    -4.199222   0.63528487   -2.1765916 -0.00012987596 
 8582000   0.96481923   -4.2454266   0.16592524   -2.7528749 -1.0124869e-05 
 8583000    1.1201529   -3.8975134   0.80477449   -1.5525287 -0.00021812855 
 8584000    0.9422012   -4.0360593   0.33265896   -2.4078737 -0.00023210638 
 8585000   0.69903116    -4.177672   0.56918954   -2.6473147 -0.00028256469 
 8586000    0.9923631    -4.036131   0.46538618   -2.2062456 -0.00020322698 
 8587000   0.87319458   -3.1772668   0.72108952   -1.2555348 -0.00045299875 
 8588000    1.0074704    -4.084367   0.38875262   -2.3103426 -4.6251362e-05 
 8589000   0.98796656   -3.8226572   0.76580451   -1.6983987 -9.2305746e-05 
 8590000    1.0562681   -3.6010081   0.50460991   -1.6440296 0.00020506691 
 8591000    1.1464251   -4.3418808   0.38741451   -2.3781318 0.00019841426 
 8592000    1.3963979     -3.66316   0.27685952   -1.4662534 -0.00024006025 
 8593000    1.0011791   -4.2356824   0.78784125     -2.07122 -0.00014012556 
 8594000     1.904748   -3.9202367   0.10634998   -1.1948582 0.00020030998 
 8595000    1.0527105   -4.0100885    0.5520455   -2.0105661 -0.00022856099 
 8596000   0.75128205    -4.225567   0.22506466   -2.9674895 2.8122474e-05 
 8597000    1.2480813   -4.0759513    0.4724526   -1.8873869 -0.00013721205 
 8598000   0.95806091   -3.9725832    0.2511323   -2.4041171 -3.928289e-05 
 8599000   0.81683764   -4.2601696   0.33541233   -2.8016055 8.7682635e-05 
 8600000   0.80569337   -4.2715335   0.45192868   -2.7117764 9.0452591e-05 
 8601000    0.9778186   -4.1035405   0.81112766   -1.9479123 -6.9342198e-05 
 8602000   0.75742219    -4.152617   0.59101222   -2.5201493  -0.00021345 
 8603000    1.0810621   -3.6708287   0.32163361   -1.8627346 0.00012913288 
 8604000     1.204157   -3.8052758   0.60121432   -1.5483457 0.00038526751 
 8605000    1.0138912   -4.2844712   0.28957134   -2.6007995 -0.00010963103 
 8606000   0.72392528   -4.4439907   0.27312014   -3.1754733 6.8381766e-05 
 8607000    1.0523485    -4.288186   0.53101739   -2.3101893 4.3640668e-05 
 8608000   0.72274523   -4.4362315    0.2956909   -3.1467659 -5.3351467e-06 
 8609000    1.2958278   -3.8501003   0.33608184   -1.7322552 0.00022007821 
 8610000   0.89432154   -4.0966895   0.32995337   -2.5370441 -5.3048194e-05 
 8611000   0.98638919   -4.2041244   0.19441658   -2.6534227 6.8594517e-05 
 8612000   0.83896796   -3.4138176    0.2266576   -2.0335791 -0.00013732429 
 8613000   0.73289606   -4.2162524   0.24855916   -2.9599611 0.00010142939 
 8614000    1.1030026   -4.0435737    0.3720842   -2.1548609 -0.00031015269 
 8615000   0.73188377   -4.2902529   0.52970674    -2.754206 -1.5884603e-05 
 8616000    1.1507489    -4.150384   0.26274827    -2.305356 -2.1785135e-05 
 8617000    1.4446775   -3.0826829   0.17070901   -0.9255424 0.00031233898 
 8618000   0.81110767   -3.8894253   0.45105431    -2.323098 9.2888412e-05 
 8619000    1.1002072   -4.3190962   0.31470662   -2.4916048 -0.00028840728 
 8620000    1.0247837   -3.5377934   0.42718116   -1.7015346 -0.00010378398 
 8621000    1.0447038    -3.895024   0.60148043   -1.8570759 -4.4009936e-05 
 8622000    1.2600988   -4.0336175   0.95547079   -1.3455108 -0.00048771525 
 8623000    1.0025904   -3.9797392   0.61396917   -1.9872083 -0.00033225601 
 8624000   0.75964913   -4.2475129   0.44402036    -2.758975 -0.00016963635 
 8625000   0.70967662   -4.1910686   0.25622963   -2.9590336 -0.00017969072 
 8626000    1.2426086   -4.0397361   0.45480396   -1.8763454 0.00013696043 
 8627000    1.0180019   -3.9368456   0.37566234   -2.1614307 7.4272844e-06 
 8628000    1.0419142   -4.2768637   0.22929247   -2.6149392 8.514843e-05 
 8629000    0.9672624   -4.0323261   0.13696774   -2.5653726 0.00042347419 
 8630000    1.0867428   -4.1347618   0.68631725   -1.9541733 -0.00023438483 
 8631000    1.0023883   -4.1363278    0.6464267   -2.1116172 0.00020644583 
 8632000   0.90936963   -3.9135331   0.10343895    -2.559711 -2.5937099e-05 
 8633000    0.8137083   -4.3500576   0.31399644   -2.9172122 -0.00030341692 
 8634000    1.3416752   -4.3398877   0.74126282   -1.7538214 -0.00014954962 
 8635000    1.0260907   -3.8039353   0.18866598   -2.2043946 0.0001221338 
 8636000   0.75404392   -4.3303506   0.21458509   -3.0789551 1.3662564e-05 
 8637000   0.97075649   -4.2008134   0.35580753   -2.5102157 -0.00012972968 
 8638000   0.95709931   -4.3535701   0.44626073   -2.5912978 1.2635457e-05 
 8639000    1.2995923   -4.1553475   0.33937933   -2.0290287 -2.3763256e-05 
 8640000   0.92056719   -4.1419574   0.23952937   -2.6366482 2.6295486e-06 
 8641000   0.97072783   -4.1840775   0.29467776    -2.554649 0.00013531525 
 8642000    1.1954841    -4.196141   0.35742739    -2.194923 0.00024632242 
 8643000   0.88225969   -4.3453952  0.075212029   -3.0570761 -5.4305795e-05 
 8644000     1.199571    -3.973554   0.23350163   -2.0906423 0.00027874581 
 8645000   0.83911947   -3.7355044   0.45522273   -2.1264924 0.00010902538 
 8646000    1.1646969   -4.1430192   0.67521959   -1.8663414 -0.00020881491 
 8647000   0.79426348   -3.9952545   0.66635631   -2.2367859 -4.3989192e-05 
 8648000   0.96434813   -3.9919115   0.43542189    -2.230511 0.00016862116 
 8649000    1.0100935   -3.9237159   0.36549881   -2.1693385 4.1393047e-05 
 8650000    1.1336152   -3.8129421   0.99907452   -1.2551467 -0.00058298107 
 8651000    1.0736391   -4.0143615   0.35158404   -2.1865237 -9.0180818e-05 
 8652000   0.65223701   -4.0791617   0.40324649   -2.7790893 -0.00012198451 
 8653000    0.8670353   -4.1054951   0.26723158   -2.6460899 0.00034252296 
 8654000    1.1267764   -4.1488453   0.36239961   -2.2371282 -1.8627693e-05 
 8655000    1.1549089   -3.7935338   0.45501251   -1.7505215 -2.8437137e-05 
 8656000   0.98593003   -3.9516165   0.27086855   -2.3250941 0.00031576284 
 8657000   0.64974826   -4.3117774   0.44445223   -2.9739213 -0.00023147163 
 8658000    1.3455945   -4.5488667    0.6906646   -2.0080097 -0.00017279913 
 8659000   0.64171146   -4.0537482   0.32799804   -2.8433969 0.00015149378 
 8660000   0.98764616   -4.2895395   0.08645322   -2.8450728 0.00035887238 
 8661000   0.88054311   -3.7922692   0.34524905   -2.2362733 0.00022413626 
 8662000   0.83624352   -4.1944413   0.30761164   -2.7369948 -6.1556314e-05 
 8663000    1.0239683     -3.78984    0.2351905   -2.1466931 0.00015385758 
 8664000   0.81558934   -4.0970199   0.21965829   -2.7559262 -1.2335421e-05 
 8665000   0.74638875   -4.3156414    0.2713348    -3.018022 -0.00018587647 
 8666000    1.2190874   -3.7445104   0.39287991   -1.6753853 -0.00022325522 
 8667000    1.5556333   -3.9415394   0.55180149   -1.2507421 -0.00028949288 
 8668000    1.1106769   -3.8600974   0.45076256   -1.8821542 -0.00014602563 
 8669000   0.85438607   -3.9388861   0.50814516     -2.25596 0.00016633396 
 8670000    1.0409609   -4.3190306   0.37457563   -2.5131338 -9.6680088e-06 
 8671000    1.1498364    -4.197833   0.35575156   -2.2610564 0.00067203429 
 8672000   0.95466741   -3.7854904   0.48742993   -1.9853928 -5.339994e-05 
 8673000   0.71587349   -4.0667154    0.4230455   -2.6593438 -0.00021950064 
 8674000   0.56666637   -4.0183854   0.17196453   -3.0672546 0.00046154247 
 8675000   0.87216044   -4.0271697   0.58819416   -2.2397549 0.00022864999 
 8676000    1.1617682    -4.138349   0.59937621   -1.9415415 -0.00012633075 
 8677000    0.7605676   -4.3357117   0.34644529    -2.943486 -5.6477149e-05 
 8678000   0.94080756   -4.1359464   0.43849927   -2.4038367 -5.479177e-05 
 8679000   0.65886621    -4.471174    0.5556634   -3.0095696 -8.0763994e-05 
 8680000      1.00287   -4.3568066   0.39425224   -2.5836081 0.00037306272 
 8681000   0.95312127   -4.2825655   0.30802392   -2.6639999 -3.2117283e-05 
 8682000    1.0038369   -4.3933576   0.22420678    -2.788875 -0.00024226214 
 8683000    1.2470936   -4.2255864   0.37502764    -2.135805 -4.2008586e-05 
 8684000     0.672361   -4.3021248   0.23055586   -3.1470726 8.350884e-06 
 8685000   0.92998164   -4.1141879   0.45991714    -2.375546 -6.7123797e-05 
 8686000    1.1899742   -3.8870985   0.65835882   -1.5925252 1.3904626e-05 
 8687000   0.73574825   -4.2626814   0.60572884   -2.6452987 -0.00047920101 
 8688000    1.5655292   -3.2477784   0.17952466  -0.91565102 0.00020103094 
 8689000   0.75818044   -4.0072757   0.41395552   -2.5508221 0.00010945419 
 8690000   0.98924469   -4.2948501   0.39215371    -2.542485 -8.4103999e-05 
 8691000    1.0224937   -4.1532552   0.60401236    -2.143314 0.00017362362 
 8692000   0.80225564    -4.097128   0.63141739   -2.3626091 0.00015917399 
 8693000   0.50926859   -4.1061948   0.37378364   -3.0321669 -0.00022932019 
 8694000    1.3167437   -4.1237415   0.46122559   -1.8519932 2.8977928e-05 
 8695000   0.82072119   -4.1148707   0.66836561   -2.3180134 0.00027401121 
 8696000    1.1195352   -4.3309535   0.49052606   -2.3010666  7.61022e-05 
 8697000    1.1850924   -3.7547872    0.3574709   -1.7678143 5.337307e-05 
 8698000   0.76100614   -3.8375658   0.49383859   -2.2973438 -0.0005756357 
 8699000    0.9799469   -4.0060632   0.21032036   -2.4483158 0.0002571555 
 8700000     1.330119    -4.465631   0.62649095   -2.0102264 7.1306218e-05 
 8701000    1.5464101   -4.1710818    0.5712859    -1.473482 0.0002221691 
 8702000   0.66591992   -4.2294506   0.46258547   -2.8512252 0.00011894781 
 8703000   0.93613815   -4.3862533   0.27432691   -2.8247365 -0.00029104951 
 8704000    1.3632218   -4.3287671   0.68529062   -1.7690465 -0.00014282694 
 8705000   0.87497667   -3.8640834   0.27554352   -2.3854469 -0.00016229491 
 8706000   0.69471029   -4.2231734     0.567605   -2.7003417 0.00023968287 
 8707000    1.0556315   -3.8232522   0.15065932   -2.2210996 -7.7408879e-06 
 8708000   0.99372239   -4.5355055   0.37574986   -2.7933873 -0.00015369163 
 8709000   0.71823671   -3.9860229   0.33476737     -2.66368 -6.6450662e-05 
 8710000   0.60309136   -3.7669268   0.48229248   -2.4553837 -0.00019482535 
 8711000    0.9940847   -4.0869037   0.67867793   -2.0413594 5.8845941e-05 
 8712000   0.79502157   -4.5872864   0.52834061   -2.9657911 -0.00013233169 
 8713000    1.1557084   -3.9994193   0.36528694   -2.0450332 -0.00013000983 
 8714000    1.0498521   -4.4768382   0.46408357    -2.569208 -3.1189053e-05 
 8715000   0.63920781   -3.9969959   0.61906893   -2.4990162 -0.00016362459 
 8716000   0.88324026   -3.9980564   0.17516246   -2.6084386 -0.00013803291 
 8717000    1.0052857   -4.3179006   0.36676616   -2.5688666 -0.00015416676 
 8718000    1.0987579   -3.9453489   0.34535189   -2.0892049 6.8585097e-05 
 8719000   0.96146824   -4.1332377   0.54414432   -2.2670745 1.9623079e-06 
 8720000   0.81622648   -4.2789643   0.26372502   -2.8929279 0.00016076733 
 8721000    1.2747092   -4.1318298   0.29510503   -2.0839997 0.00016203855 
 8722000   0.71842404   -4.3404305   0.35471516   -2.9978823 0.0002619837 
 8723000    1.3597202   -4.1382309   0.33050735   -1.9381083 -1.0421243e-05 
 8724000    1.5093042   -4.0153779   0.57176814   -1.3683165 -1.8014953e-05 
 8725000   0.81160363   -4.2640485   0.65668419   -2.4914093 -2.3799293e-05 
 8726000   0.74707592   -4.0373369   0.31485115   -2.6952564 0.00024948048 
 8727000    1.1928773   -4.1089042   0.20241765   -2.2662802 0.00037847703 
 8728000     1.050015    -4.069813   0.52206999   -2.1039724 0.00028601022 
 8729000    1.1016198   -4.1368938   0.29629323   -2.3258734 0.0003295137 
 8730000   0.71090307   -3.7526743   0.59727639   -2.1779062 0.00027291682 
 8731000   0.87635859   -4.2508717    0.2313174   -2.8145613 4.3706984e-05 
 8732000     1.078726   -4.1113888     0.742926   -1.8852145 -1.1672622e-05 
 8733000   0.72866909   -4.4110231   0.48742126   -2.9216818 -8.6291169e-05 
 8734000   0.93403598   -4.0127845   0.44495568   -2.2835293 0.00047562661 
 8735000    0.9189901   -3.8644113   0.61786102   -1.9829389 -0.00019517603 
 8736000     1.142961   -4.1570797   0.71714327   -1.8683651 -0.00014340814 
 8737000   0.76446581   -4.0114274   0.32126867   -2.6390182 -9.5532326e-05 
 8738000    1.1977912   -4.3275076   0.34444586   -2.3360988 6.806201e-06 
 8739000    1.5100747   -4.3235828    0.7650449   -1.4821852 -0.00014874519 
 8740000    1.0194323     -4.08321   0.45386346   -2.2276271 0.00015379099 
 8741000   0.79013953   -4.0162482   0.58941225   -2.3403941 0.00010556506 
 8742000    1.2855115   -3.5646462   0.38416937   -1.4128986 0.00015042979 
 8743000    1.1797234    -4.125094   0.45399207   -2.0489822 9.7936815e-05 
 8744000    1.3358769   -3.8008731   0.39732206   -1.5667204 -0.00021189472 
 8745000    1.0332974   -3.6206405    0.4688341   -1.7310225 0.00014797128 
 8746000   0.76651473   -4.0817092   0.24759346    -2.780158 -0.00016766455 
 8747000    1.0627493   -4.1735499   0.41712422   -2.2951455 -0.00015325088 
 8748000   0.95814283   -4.1594731   0.55979693   -2.2822298 -0.00025424733 
 8749000    1.2580409   -4.1445332   0.86794309   -1.5467839 -0.00029996896 
 8750000    1.0381084   -3.9072353   0.18673912   -2.2930972 0.00033556805 
 8751000   0.82771862   -3.4985049   0.53711811   -1.8232737 5.3033503e-05 
 8752000   0.72112868   -4.3266581   0.53518605   -2.7999201 -0.00013371937 
 8753000    1.1957417   -3.9174288   0.47494415   -1.7983398 0.00024698547 
 8754000   0.87897623   -4.1871604   0.33646062   -2.6421074 1.0280882e-05 
 8755000    1.0118846    -3.805566   0.37359928   -2.0406254 -5.747898e-05 
 8756000    1.0567731    -4.098406     0.538725    -2.106618 0.0001337675 
 8757000    1.1374822   -3.8571878  0.095854912   -2.1972949 0.00020727034 
 8758000    0.8930435   -4.0699243   0.15606629   -2.6859232  5.03272e-05 
 8759000    0.7935425   -3.6237292   0.48201694   -2.0505913 -0.00031353881 
 8760000    1.0831291   -3.6549353   0.70664199   -1.4589909 -0.00016601534 
 8761000     1.193671   -4.0951751   0.52790672   -1.9259708 -5.5498856e-05 
 8762000   0.68912631   -4.2810904   0.30696702   -3.0265747 4.7719847e-05 
 8763000    1.0319934   -4.0428022   0.49066234   -2.1331489 -7.9560351e-05 
 8764000    1.2096356   -3.9085926   0.30238089   -1.9429627 0.00019709627 
 8765000   0.85847772    -4.363786   0.47319916     -2.71018 -0.00019613597 
 8766000     1.284822    -4.195091   0.60836478   -1.8200959 0.00029401728 
 8767000   0.92159578   -4.4238442   0.30564117   -2.8510088 0.0001000351 
 8768000    1.0059525   -3.7204538     0.360179   -1.9770902 -0.00017669485 
 8769000   0.73025514   -4.4434729    0.1605408   -3.2788313 0.0003435483 
 8770000    1.3100622   -4.1922607   0.31597346   -2.0749518 2.9872392e-05 
 8771000   0.83626204   -4.3907022   0.58895882   -2.6518831 -0.00023528315 
 8772000    1.2063433   -4.0361397   0.67260852   -1.7048091 5.3735941e-05 
 8773000     1.315649   -4.2502516    0.3666572   -2.0745771 -0.00024821304 
 8774000   0.79234673   -3.6766894   0.38643997   -2.2007726 -4.8387473e-06 
 8775000   0.83391723   -4.0654124    0.4102206   -2.5085556 0.00015055836 
 8776000   0.92383563   -3.9046813   0.45133223   -2.1830751 -0.00024084563 
 8777000   0.87437774   -4.0651493   0.39740851   -2.4654714 -0.00015825567 
 8778000    1.1423105   -4.1679448   0.57287503   -2.0243929 0.0001629526 
 8779000    1.0834913    -3.571394   0.24115532   -1.8404381 -0.00031888166 
 8780000   0.87078439   -4.0849198   0.38296443   -2.5046269 0.00040195522 
 8781000   0.64980485   -4.4513539    0.6324962    -2.925376 -0.0003857056 
 8782000   0.51223234   -3.5995276    0.3965784   -2.4986297 -0.00013605375 
 8783000    1.0071074   -4.1219205   0.29657773     -2.44057 -4.0764907e-05 
 8784000   0.74418594   -3.7938504   0.26364037   -2.5069544 -3.9190447e-05 
 8785000   0.77389956   -3.8615013     0.628086   -2.1693034 -0.00022693398 
 8786000    1.4018779   -3.7262349   0.61454967   -1.1841031 0.00020746641 
 8787000   0.86537717   -3.9485538   0.35686488   -2.4017953 -6.9649108e-05 
 8788000   0.76480766   -4.4215878   0.45899994   -2.9109773 -5.5566886e-05 
 8789000   0.78728722   -3.9915948   0.49267792    -2.416397 -0.00030536101 
 8790000   0.70672518   -3.5307481   0.27654013   -2.2824609 6.482559e-05 
 8791000   0.91601102   -4.3396319   0.31301842   -2.7670983 0.00010909682 
 8792000   0.80107891   -4.0215363    0.6313236   -2.2887292 -0.00015374728 
 8793000   0.97863861   -4.0870323   0.24706605   -2.4943382 -0.00017573041 
 8794000    0.9753487   -4.3193333   0.30224598   -2.6759828 0.00016724081 
 8795000   0.85868067   -4.3617446   0.46299756   -2.7180611 -0.00015918895 
 8796000   0.71674092   -3.6560676   0.34496818   -2.3255807 -0.00024490893 
 8797000   0.73779289   -4.4099043   0.32202667   -3.0734124 -0.0001611192 
 8798000    1.3248515   -4.2597644   0.48607401   -1.9520196 -5.558249e-05 
 8799000   0.91267704   -3.7541202   0.21174805   -2.2874412 -0.0002642603 
 8800000   0.84359012   -4.2401505   0.51513136   -2.5650828 -8.8891986e-05 
 8801000    1.1105559   -3.9405644   0.25765088   -2.1558992 -0.00010231182 
 8802000   0.84693377   -4.0700503   0.39064757   -2.5148688 0.0001309945 
 8803000    1.0051976   -4.4837896   0.37902594   -2.7226169 -7.8209297e-05 
 8804000    1.2225584   -4.2124344   0.12841031   -2.4030063 0.00044063873 
 8805000   0.48109315   -4.2450172   0.33506453   -3.2484496 1.6379898e-06 
 8806000    1.1245691   -4.4402398    1.0051617   -1.8887955 -0.00039016329 
 8807000   0.85492742   -3.7479532   0.41194838   -2.1604796 -0.00012122325 
 8808000   0.39515491   -4.0402684   0.41479889   -3.0821315 0.00024011905 
 8809000    1.2661312   -4.3559423   0.48919402   -2.1258178 -6.2690962e-05 
 8810000    1.0975108   -3.9515899   0.63741165   -1.8051009 0.00024231769 
 8811000    1.1065243   -4.2076482   0.23909723   -2.4470802 -0.00014145434 
 8812000   0.69250249   -3.6699872   0.51679288   -2.2010034 -0.000352404 
 8813000    1.0238252   -4.4123431   0.43929932   -2.5652841 -9.1196031e-05 
 8814000    1.3103973   -4.2733289   0.55154903   -1.9199836 0.00028155987 
 8815000    1.2600512   -3.6562123    0.1894128   -1.7342291 0.00030071313 
 8816000   0.90680077   -4.0488762    0.5341169   -2.2679083 -0.00021594517 
 8817000   0.73924421   -3.8972513   0.70216201   -2.1786285 0.00029412918 
 8818000    1.1534194   -3.8026233   0.63418513   -1.5824865 0.00011078896 
 8819000    1.1710962   -3.7206882   0.61185395   -1.4985769 0.00015089317 
 8820000    1.1458876    -3.811541   0.43886763    -1.797078 -0.00010473661 
 8821000   0.46601985   -4.0652788   0.21015979   -3.2143417 -7.8020066e-05 
 8822000   0.93498366   -3.7889225   0.42214389   -2.0811761 7.0669474e-05 
 8823000   0.99976598   -3.6891522   0.26249123   -2.0519828 -0.00031619702 
 8824000   0.97527042   -3.9351439   0.34387179   -2.2502752 0.0003425902 
 8825000   0.87351494   -3.7197379   0.35950339   -2.1591515 -7.2806634e-05 
 8826000    1.4354271   -3.9083629    0.5694689   -1.3651818 -4.8080468e-05 
 8827000    1.0936103   -4.2099235   0.85536222   -1.8508471 9.0369977e-05 
 8828000    1.1522403   -4.4874095   0.62093589   -2.2821433 -0.00010743598 
 8829000   0.69317142   -3.6594594   0.50974709   -2.1966016 -0.00017439647 
 8830000    1.3582776   -4.1347905   0.67499828   -1.5921606 0.00011370847 
 8831000    1.0070024   -4.1106508   0.81732712   -1.9086953 -0.00026380029 
 8832000   0.81478764   -4.3177992   0.53411591   -2.6633503 0.0001216514 
 8833000    1.2241677   -3.7499134   0.24190575    -1.824777 0.00025517832 
 8834000   0.70627464    -4.385862   0.68869311   -2.7260412 -0.0003639841 
 8835000   0.73163806   -3.6813434   0.29508398   -2.3802571 3.0826326e-05 
 8836000   0.97357598   -3.7392047   0.30082532   -2.0997124 -1.2844109e-05 
 8837000   0.91287911   -3.6500726   0.35667968   -2.0381841 -4.8904472e-05 
 8838000    1.2532277   -4.1916009   0.74412948   -1.7242834 0.00023308119 
 8839000   0.82873289   -4.0087149   0.54603233   -2.3231748 -8.978286e-05 
 8840000   0.90850161   -4.1496628   0.49797664   -2.4024964 -0.00017601894 
 8841000    1.5281691   -4.3876434   0.74923215   -1.5371788 9.9733245e-05 
 8842000    1.0423867    -3.791846   0.15232221   -2.2062421 0.00015397123 
 8843000    1.2986224    -3.552656   0.40972779   -1.3573224 8.4306904e-05 
 8844000    1.3411829   -4.2134544   0.31856473   -2.0507631 0.00037549553 
 8845000   0.78990755   -3.6855821   0.29454258   -2.3049167 -4.7949306e-05 
 8846000    1.0437354   -4.1012736   0.88051729   -1.7856202 -0.00037697115 
 8847000    1.0350735   -3.7902344    0.4733712   -1.8936371 6.7547143e-05 
 8848000    1.0568091   -3.9225971   0.49000745   -1.9794772 0.00029573037 
 8849000   0.80997764   -4.1945956    0.4293487   -2.6515277 -0.00022099161 
 8850000   0.88637625   -3.9727047   0.46383843   -2.2900989 -0.0002752978 
 8851000     1.153564    -3.315434   0.54178762   -1.1874959 -0.00013911154 
 8852000   0.77698476   -3.6941017   0.29448728   -2.3312604 -7.0467345e-05 
 8853000    1.1010831   -4.2515894   0.32843461   -2.4091655 0.00027235296 
 8854000   0.95544725   -3.8535678   0.64961845   -1.8902094 -2.4642197e-06 
 8855000    1.3783736   -4.0132527    1.1965656   -0.9214234 -0.00020964953 
 8856000   0.63532001   -3.5589318   0.26611712   -2.4192496 -0.00033263775 
 8857000    1.0826943   -4.2047045   0.55177574   -2.1642241 -8.7919577e-05 
 8858000    1.1231876   -3.7415363     0.261481   -1.9356724 0.00016253221 
 8859000   0.84540859   -4.0770381   0.45162663   -2.4629747 -0.00015003474 
 8860000    0.8254071   -4.1551743    0.3454186    -2.674821 7.3973897e-05 
 8861000   0.83445424   -4.0787723    0.3172804   -2.6141174 -0.000118338 
 8862000    1.1659619   -4.4069161   0.49905939   -2.3046591 -0.00024357833 
 8863000    1.1601987   -3.9341381    1.0413639   -1.2975009 6.1887862e-06 
 8864000    1.1440301   -4.2461863   0.63750497   -2.0356399 -0.00032395765 
 8865000   0.92712477   -4.0720037   0.69636928   -2.1008378 1.0189448e-05 
 8866000   0.61526868   -4.0431512   0.69323891   -2.5039178 -8.7598627e-05 
 8867000   0.82037887   -3.9507211   0.53707936   -2.2856208 0.00016075672 
 8868000     1.065445   -3.8334204   0.57363289   -1.7948007 -8.3024329e-05 
 8869000   0.76773139   -4.2637028   0.55301909   -2.6550531 5.4501111e-06 
 8870000   0.89492091   -3.4732928   0.35927984   -1.8834967 5.487725e-05 
 8871000   0.67575291   -4.1520517   0.23109846    -2.991793 -0.00035047302 
 8872000   0.98107912   -3.8868612   0.71887847    -1.818999 -9.9992122e-05 
 8873000   0.72689625   -4.1979388   0.45794161   -2.7405149 -0.00024706953 
 8874000   0.83527887   -3.5477592   0.58285985   -1.8163909 -0.00057429642 
 8875000   0.85531449   -4.1215881   0.17312043   -2.7724103 0.00018443456 
 8876000   0.97912359   -3.4314282   0.44346663   -1.6416666 0.00010109935 
 8877000   0.88795134    -3.242829    0.2832787   -1.7386172 -0.00014782597 
 8878000    1.1615651   -3.7152372   0.57918261   -1.5389026 -0.00019445902 
 8879000    1.4028726   -4.0931195   0.58052093   -1.5836487 0.00030625911 
 8880000   0.96523314    -4.120044   0.49067539    -2.302173 -0.0002641525 
 8881000    1.5971202    -2.982992   0.44698236  -0.33996931 -0.00028868373 
 8882000   0.80821735   -3.9998293   0.56633866   -2.3221918 -0.00014018264 
 8883000    1.1446143   -3.8370435   0.37673142   -1.8864674 0.00033687928 
 8884000   0.29733594   -3.9327387   0.31578197   -3.2081198 4.9368082e-05 
 8885000   0.64911807   -4.0357806   0.40046864   -2.7427747 -9.89764e-05 
 8886000   0.50302015   -3.7641646   0.40490977   -2.6676021 0.0002013506 
 8887000    0.7458484   -4.1525727   0.40681383   -2.7202173 0.00015274305 
 8888000   0.86883968    -3.867366    0.3034674    -2.369244 -0.00014161993 
 8889000    1.0692086   -3.9536176   0.78762391   -1.6958318 -0.00011052739 
 8890000    1.0759956   -3.8305093   0.32113925   -2.0298761 -0.0001845215 
 8891000    1.1496015   -4.3744454   0.50015563   -2.2935877 -0.00029903396 
 8892000    1.2121246   -4.1653676   0.66792403   -1.8307722 8.9294778e-05 
 8893000   0.69036138   -4.1694175    0.2760567   -2.9441139 -4.7873316e-05 
 8894000    1.0371498   -3.6180206   0.57073993   -1.6211996 9.5877433e-05 
 8895000   0.89064443   -3.7943091   0.20400413   -2.3656688 0.00037903521 
 8896000   0.85777835   -4.3032001   0.66885568   -2.4548991 -0.00023369234 
 8897000    1.1985778   -3.4620768   0.26127373   -1.5527586 0.00018672222 
 8898000     0.967002   -4.1003595   0.29997207   -2.4707597 -0.00012539712 
 8899000   0.58643726   -3.7749758   0.12594856    -2.842676 1.6919836e-05 
 8900000    1.3205509   -3.8049637   0.40060243   -1.5886038 7.939712e-05 
 8901000   0.73073129   -4.0255425   0.76518825   -2.2555987 9.8936313e-05 
 8902000    1.0141006   -4.0534009   0.15502057    -2.503992 0.00011996295 
 8903000    1.2049846   -4.3810576   0.34005866    -2.384145 -8.6136688e-05 
 8904000     1.150974    -4.017584   0.25911592   -2.1758788 0.00026873535 
 8905000   0.54168946   -4.3360734   0.30103969   -3.2902107 0.00022554869 
 8906000   0.91675954   -3.8863099   0.48310794   -2.1426576 -3.9087594e-05 
 8907000   0.70309292   -3.8727049    0.2665739   -2.6393782 0.0001592632 
 8908000    1.1026358    -4.164812   0.68001696   -1.9686709 -0.0004386088 
 8909000   0.88396343   -4.0094681   0.25048819   -2.5435302 -0.00014486676 
 8910000    1.1245761   -4.1067706    1.1525315   -1.4079469 -0.00011323583 
 8911000    1.0482616   -4.1843054   0.65109702   -2.0918488 0.00067155853 
 8912000   0.98207313   -4.3475262   0.26909396   -2.7280817 -1.991831e-05 
 8913000     1.270616    -4.332226    1.0629725   -1.5221564 -0.0003839652 
 8914000    1.1815289   -3.8085163    0.6227294   -1.5611847 1.2919808e-05 
 8915000   0.93573595   -3.9561066   0.32979191   -2.3396777 -6.0609907e-05 
 8916000    1.2251989   -4.0163502    0.5617594   -1.7699423 -8.6201977e-05 
 8917000   0.75349002   -3.7396671   0.37173773   -2.3318806 3.3481736e-05 
 8918000   0.93117418   -4.0625628   0.38289056   -2.3993077 0.00035927442 
 8919000   0.61543444   -3.7176793   0.64814424   -2.2233127 -0.0003794391 
 8920000    1.1817302   -3.8830995   0.77749617   -1.4807243 -7.741874e-06 
 8921000   0.91153412   -3.7452487   0.46740504   -2.0244842 0.00018786949 
 8922000    1.2657171   -4.1629628   0.78554487   -1.6370569 -0.00021776098 
 8923000    1.0348204   -4.1822481   0.52758772   -2.2317823 1.9400337e-05 
 8924000   0.79059063    -4.221419   0.29079602   -2.8435608 0.00020525964 
 8925000    1.0889774   -3.8590558   0.32886554   -2.0328463 0.00063003156 
 8926000     1.061092   -4.1290163   0.42097243   -2.2490423 -0.00021812137 
 8927000    1.0909117   -3.4851614    1.2273162   -0.7578416 -0.00053038125 
 8928000   0.78145755   -3.9398329   0.63289381    -2.232435 -0.00027123211 
 8929000    1.1314951   -3.2690398    0.3002743   -1.4129597 0.00014904837 
 8930000   0.83696608   -4.1418006   0.48157117   -2.5094011 -0.00052431898 
 8931000   0.74768343   -3.8399726    0.4868302   -2.3250777 -5.8102547e-05 
 8932000    1.0674138   -4.0989317   0.56105502   -2.0701827 0.00014307727 
 8933000   0.89444794   -4.1973296   0.20451066    -2.762953 7.4317709e-05 
 8934000     1.402557   -4.0243223   0.35531985   -1.7404866 3.5720529e-05 
 8935000   0.65848775   -4.0581508   0.49283817    -2.659892 0.00015614477 
 8936000   0.99366448   -4.0731693   0.59616958    -2.110711 -0.00015962768 
 8937000    1.0624183   -4.1217448   0.35196945   -2.3089502 -0.00015530889 
 8938000    1.1541412   -3.9883389   0.39805966   -2.0033351 7.4171353e-05 
 8939000   0.52862123   -3.8024745   0.61519702   -2.4604233 9.2961722e-05 
 8940000    1.3849317   -4.3467432   0.28606186   -2.1564003 0.00029732235 
 8941000    1.2639961   -3.8355408   0.74094819    -1.356598 4.995502e-05 
 8942000   0.75755681   -3.9464433   0.50533021   -2.3994724 5.6624686e-05 
 8943000    0.9134474   -4.0324166   0.23323758   -2.5431888 0.00018524533 
 8944000    1.0913194   -3.7981365   0.42272508   -1.8748473 5.3462176e-05 
 8945000    0.6486984   -3.8169163   0.17650417   -2.7484518 -0.0003023226 
 8946000    1.3744865   -3.6353597   0.16017523   -1.5852656 0.00047328712 
 8947000   0.99386733   -3.7102237   0.64311395   -1.7005421 0.00011468104 
 8948000   0.70790438   -3.9115542    0.4888781   -2.4493076 -0.00015036769 
 8949000    1.4289525   -4.2204338   0.88910633   -1.3665178 -0.0005178301 
 8950000    1.4267814   -3.7959559   0.58572162   -1.2484099 -0.00025914216 
 8951000    1.1734604   -3.8691913   0.46383331     -1.79185 0.0002333265 
 8952000   0.83252907    -4.216311   0.53425866   -2.5373249 -6.8907952e-06 
 8953000    1.1721175   -4.0228024    0.3753601   -2.0357807 -5.7223258e-05 
 8954000    1.1198182   -4.2614894   0.62265268   -2.0990867 0.00017631549 
 8955000   0.78213096   -4.1508383    0.4321295   -2.6432787 -0.00011377823 
 8956000    1.5843122   -3.6714654   0.63016127   -0.8628748 -9.3627837e-05 
 8957000    0.9969792   -3.6894522   0.34527711   -1.9733287 0.00032466813 
 8958000   0.95447909   -3.6409549   0.56950033   -1.7590458 -5.27439e-06 
 8959000    1.2680761   -3.9648181   0.33529301   -1.8859204 0.00014729735 
 8960000    1.5527016   -3.1738402   0.22372991  -0.81514554 0.00030280655 
 8961000    1.0255149   -4.2492828   0.54133246   -2.2978674 0.0001838773 
 8962000    1.1749476   -3.9687328   0.43608845   -1.9170914 0.00019509784 
 8963000    1.0866448   -4.3099634    0.2934263   -2.5224006 -0.00011441116 
 8964000    1.2010532   -3.3379514   0.23770326   -1.4487999 0.00035302152 
 8965000   0.94241944   -3.8473361   0.47602874   -2.0754807 -9.1002195e-05 
 8966000   0.96892119   -4.1733853   0.38727043   -2.4538483 0.00030730852 
 8967000    1.2142985   -3.9531714   0.46354302    -1.819968 4.2505359e-05 
 8968000     1.105834   -3.9248003   0.19386544   -2.2104132 0.00051329104 
 8969000    1.7843982   -4.3611789   0.48106634   -1.4265649 -0.00023093701 
 8970000   0.85890876   -4.0570124   0.75099883    -2.125014 -0.00051896307 
 8971000    1.1557057   -4.0077323   0.36274507   -2.0558918 0.00023340841 
 8972000   0.52700146   -4.0536804   0.34961819   -2.9794352 -0.0002187877 
 8973000   0.89601794   -3.8604943   0.44914329   -2.1793264 0.00019666184 
 8974000     1.078044   -3.8855368   0.52909586   -1.8741305 0.00029810875 
 8975000   0.99523606   -4.0786437   0.22056406     -2.48963 0.00016570456 
 8976000   0.91453288    -4.107477   0.76214305   -2.0878513  -0.00038652 
 8977000    1.0512023   -4.3213644   0.34114909   -2.5348121 8.5553053e-05 
 8978000   0.67087764   -3.3554768   0.91529101   -1.5177291 -2.4396876e-05 
 8979000    1.0473036   -4.1662739   0.46647118   -2.2597603 -0.00016382013 
 8980000     1.083241    -4.196778   0.25450985   -2.4528118 0.0002679415 
 8981000   0.97196382   -4.1694397   0.75489149    -2.078098 -0.00020562703 
 8982000    0.3356931   -4.2714363   0.33126676   -3.4785915 -4.520743e-05 
 8983000    1.1848254   -3.9906105   0.26013866   -2.1013368 0.00014281595 
 8984000   0.90952324   -3.9957518   0.49787206   -2.2472853 7.7025045e-05 
 8985000    1.2308277   -4.1317328   0.52643899   -1.9129058 -0.0002573035 
 8986000    1.1407991   -3.8121101    0.6511281   -1.5923832 -3.9049285e-05 
 8987000   0.93603904   -4.0448737   0.19170122   -2.5661188 0.00029595406 
 8988000   0.80161799   -3.8588085    0.5835486   -2.1730352 4.0141961e-05 
 8989000   0.57069891   -4.4330566   0.59225729   -3.0560883 -0.00025537407 
 8990000   0.89886246   -3.9127114   0.41517295   -2.2616025 -2.0883046e-05 
 8991000    1.1015038   -3.7770625   0.41571238   -1.8467823 4.671143e-05 
 8992000    1.3054984   -4.1387638   0.58815741   -1.7555461 -6.1287478e-05 
 8993000     1.066182    -4.063303     0.465058   -2.1322447 0.00023237542 
 8994000    0.8793895   -4.3981819    0.4776712   -2.7113502 -0.00019373978 
 8995000    1.1675905   -4.1655712   0.75434665   -1.8057876 0.00010765521 
 8996000   0.77745404   -4.0892407   0.18076132   -2.8394801 0.00027422239 
 8997000    0.7404106   -3.6937702   0.28427683   -2.3914288 0.00043994495 
 8998000   0.99404944   -3.5677228   0.47018512   -1.7307197 0.00014681217 
 8999000   0.74905154   -4.2766676   0.47363615   -2.7730856 4.0874306e-05 
 9000000   0.70401618   -3.8197128   0.62710769   -2.2245829 7.9374194e-06 
 9001000    1.1986093    -4.022165   0.34121658   -2.0328607 0.00030242845 
 9002000   0.98285498   -3.7400561    0.4008771   -1.9877534 0.00029893401 
 9003000    0.7660069   -4.3281298   0.62839622   -2.6464741 -0.0003724185 
 9004000    1.1535025   -3.6809284   0.23954097   -1.8553215 -0.00028431443 
 9005000   0.89062546    -3.960372   0.42868721   -2.3070748 -0.0001461311 
 9006000    1.0548305    -3.993733   0.42226858   -2.1210725 0.00024097374 
 9007000    1.2899723   -2.9228089    0.6466562  -0.50244079 -0.00017549425 
 9008000    1.0688047   -4.0316584   0.54945947   -2.0125925 3.1776194e-05 
 9009000   0.84838326   -3.8576597   0.15570671   -2.5354261 0.00011806923 
 9010000   0.70212961   -4.0998186   0.99134548   -2.1430449 -0.00010123117 
 9011000    1.3930392    -3.503392   0.47051523   -1.1174478 1.9508994e-05 
 9012000    1.1344075   -4.2099008   0.41387014   -2.2362203 -0.00026816289 
 9013000   0.66792939   -3.1437929   0.39469457   -1.8306954 0.00059258232 
 9014000    1.2207233   -3.5574762   0.61725654   -1.2617251 -5.189546e-05 
 9015000   0.92332671   -3.8792263   0.56718891   -2.0424631 -1.0343612e-05 
 9016000    1.4213926   -4.1292719   0.68908803   -1.4857691 -9.240502e-05 
 9017000    1.1008458   -3.9817382   0.57084476   -1.8972305 -0.00031125222 
 9018000   0.83032359   -3.6320359   0.41054763   -2.0797933 -0.00021280014 
 9019000    1.1488298   -4.1037808   0.57310516   -1.9510347 3.1262073e-05 
 9020000     0.933166   -3.3013376    0.9984135   -1.0198209 0.00035672231 
 9021000    0.8300924   -3.6980721   0.52876696   -2.0279281 0.00010863779 
 9022000   0.72788894   -4.1441405   0.42465824    -2.718635 -4.4682934e-05 
 9023000    1.0335717   -3.4798689   0.38371376   -1.6749941 -0.00013440611 
 9024000   0.78107762   -3.8714351    0.5177098   -2.2797436 0.00026506525 
 9025000   0.85229722    -4.080248   0.72633138    -2.182008 0.00010860914 
 9026000   0.87724124   -3.7655546   0.53021268   -2.0291353 1.4161081e-06 
 9027000   0.85408908   -3.8813381    0.5080289   -2.1989367 -0.00025324431 
 9028000    1.3626033   -3.7357438   0.40334193   -1.4588224 -0.00025196816 
 9029000   0.79692627   -3.6682499   0.41206496   -2.1604114 -0.00016965358 
 9030000    1.0794833   -4.3434482   0.56927751   -2.2898811 -3.0192507e-05 
 9031000    1.0883317   -3.4280117   0.30176818   -1.6297874 0.0005255244 
 9032000   0.75801295   -4.0479612   0.52658314   -2.4791102 -0.00013053669 
 9033000   0.96948364   -3.9031748   0.64198768   -1.9281471 0.00022998443 
 9034000    1.6811986   -4.2858101    0.3752482   -1.5989138 0.00015496178 
 9035000    1.2398289   -4.0461969   0.31861243   -2.0228197 0.00029423534 
 9036000    1.0192976   -4.2393908   0.83138298   -2.0064737 9.4470227e-08 
 9037000   0.93163166    -3.879267   0.68972669   -1.9085468 -0.00027424712 
 9038000    1.4480796   -4.0302385   0.68432846   -1.3548006 -0.00042131794 
 9039000   0.83605245   -4.3455133   0.40473367   -2.7912075 0.0002574812 
 9040000    1.2621923   -3.9450371   0.56524661   -1.6442761 -1.360098e-05 
 9041000    1.0800152   -4.4030453   0.45635308   -2.4616713 -1.6959256e-05 
 9042000   0.62534766   -4.0773685   0.55807483   -2.6594406 0.00017123691 
 9043000     1.111985   -3.9557034   0.50695148   -1.9197725 0.00010323015 
 9044000   0.79163733    -3.825353   0.58552445   -2.1513272 5.0327417e-05 
 9045000   0.65361525   -4.0470245   0.75143035   -2.3968732 -0.00011377481 
 9046000    1.1038307   -3.8431236   0.35354859   -1.9718078 0.00031302194 
 9047000   0.82820284   -3.7549281   0.73817079   -1.8779784 0.0002459769 
 9048000   0.64029594   -3.7926527   0.69282368   -2.2194221 -4.8549535e-05 
 9049000   0.97435867   -3.6312832   0.15668553   -2.1348545 0.00031962931 
 9050000   0.87873074    -4.113006   0.53672276   -2.3680284 0.00016512296 
 9051000    1.1978177   -3.9292107   0.34192787   -1.9402835 -0.00011752941 
 9052000    0.8185751   -2.4833331   0.80967512  -0.54811723 0.00010559126 
 9053000    1.0295153   -3.7111987   0.16317222   -2.1324429 8.3015788e-05 
 9054000   0.71654383   -3.3305659   0.66796527   -1.6773529 -0.00052617565 
 9055000    1.1812109   -3.7988652    1.2484782  -0.92622202 5.2429291e-05 
 9056000   0.90696565   -3.9336333   0.46611448   -2.2204411 -8.0976142e-05 
 9057000   0.95611929   -3.7602812   0.43534246   -2.0102747 0.00035847136 
 9058000    1.3317575   -3.6526127   0.37594572   -1.4455004 5.7366097e-05 
 9059000    1.0766524   -3.9405359   0.37667399   -2.0834649 0.00031032805 
 9060000   0.94279972    -3.551163   0.46151036    -1.793303 -0.00025458393 
 9061000   0.75555601   -3.7667344   0.43972763   -2.2881172 -1.8688908e-05 
 9062000   0.77556776   -4.2287994   0.76303963   -2.3993541 3.6014167e-05 
 9063000   0.53937207   -3.5391347   0.66379017   -2.1337079 -0.00024115689 
 9064000   0.70748608     -3.85327   0.58852759    -2.291949 -5.8318644e-05 
 9065000    1.9495329   -3.7530267   0.30244434  -0.76997464 -5.9340549e-05 
 9066000    1.0107012   -4.3084487   0.40400581   -2.5147288 7.6810088e-05 
 9067000    1.2975544   -3.9459485   0.61677074   -1.5450405 0.00014040625 
 9068000    1.0443175   -3.9459697   0.66692542   -1.8431077 -0.00032121154 
 9069000   0.73674556   -4.1362876   0.63305418   -2.4902083 -1.8610087e-05 
 9070000    1.3444732   -4.1554344   0.73014105   -1.5766426 -0.00036247279 
 9071000   0.76942331   -4.0426402   0.51292659   -2.4717566 -0.00036416248 
 9072000    0.8765553    -3.670971   0.40215943    -2.063548 -0.0001213065 
 9073000    1.2443554   -3.8357733   0.54537903   -1.5794057 -0.000312503 
 9074000   0.84591707   -4.4673509   0.50631546   -2.7978995 -0.0001116967 
 9075000    1.0951883     -3.78181   0.34348079   -1.9324452 -0.00031857023 
 9076000   0.68069984   -4.3812667    0.2908733   -3.1544311 -8.9488823e-05 
 9077000    0.8632119    -4.098848   0.86463227   -2.0472994 -0.00019859624 
 9078000     1.029187   -3.7451968   0.86371252   -1.4663522 1.8091015e-05 
 9079000   0.79391841   -3.9825652    1.1335576   -1.7573697 -0.00043647812 
 9080000   0.96972421   -3.9881728    0.3787784   -2.2760236 -0.00029666708 
 9081000    0.6494301   -3.9530673   0.30103211   -2.7590688 9.0850058e-05 
 9082000    1.0564732   -3.9276452   0.40800966   -2.0669849 -0.00012821268 
 9083000   0.56368788   -3.8002874   0.52149075   -2.5037259 0.00011249672 
 9084000   0.83768602   -3.4942572   0.33399613   -2.0084428 0.00034029806 
 9085000   0.63876602   -3.8341907   0.20616112   -2.7497263 -0.00010830824 
 9086000    1.0836492   -3.9721115    0.5055078   -1.9765861 -0.00042458874 
 9087000    1.4295338   -3.9915168   0.27294157   -1.7529663 -2.7354486e-05 
 9088000    1.1086448   -4.2148119   0.97907443   -1.7113509 -3.7492169e-05 
 9089000   0.99492996   -3.8407626   0.85994177   -1.6127922 -0.00012109562 
 9090000    1.1466324   -4.1764941   0.61935358   -1.9805209 -0.00011955378 
 9091000    1.1648511   -3.7530997   0.66813116   -1.4832983 5.8854052e-05 
 9092000   0.60431735   -4.1825133   0.11250556   -3.2390713 0.00022111334 
 9093000    1.0136104   -3.6322316   0.51300915   -1.7255081 -3.6730722e-06 
 9094000    1.0242092   -3.9518282   0.38101413   -2.1625265 2.3729629e-05 
 9095000    1.3455062   -3.2658861   0.53700539  -0.87880978 -0.00031552348 
 9096000    1.2511065   -3.8670118   0.30511176   -1.8416286 0.00042530189 
 9097000   0.95958827   -2.8708332   0.53425113   -1.0171482 0.0001990554 
 9098000   0.83125838   -3.2745689   0.69898575   -1.4326029 -0.00021044232 
 9099000    1.1528546   -3.9545654    0.3453113    -2.024079 -0.00020415613 
 9100000    1.1783677   -3.4157885   0.84866741  -0.94686555 -0.00072727231 
 9101000   0.89385106   -3.9969074   0.49494518    -2.272917 0.00022107752 
 9102000   0.97680854   -4.1156559   0.76149059   -2.0110536 5.6895609e-05 
 9103000   0.87455936   -3.2901872   0.53962037   -1.5480477 0.00015613583 
 9104000   0.79817865    -3.822727   0.22283606   -2.5023953 9.4572137e-05 
 9105000   0.80947722   -4.1093399   0.81476424   -2.1815444 -0.00040092627 
 9106000    1.3330476   -3.8995257    0.4701902    -1.596395 0.0001101852 
 9107000   0.81898523   -3.9220677   0.64058819   -2.1553748 -2.6611932e-05 
 9108000   0.82919081   -4.3536984   0.65031396   -2.5632471 6.9391018e-05 
 9109000    1.3124076    -3.489198   0.41465572   -1.2699817 -2.6365696e-05 
 9110000    1.0531897     -3.95002   0.36354798   -2.1383362 0.00017651538 
 9111000   0.71028466   -3.9941949   0.54556499   -2.4719885 0.0001054778 
 9112000   0.89281235   -3.5681715   0.49106707   -1.8494874 0.00012288036 
 9113000    0.7957004   -3.9347021   0.35858965   -2.4820244 5.2298216e-05 
 9114000    1.2942322   -3.9308364   0.32033687   -1.8309302 0.00014387187 
 9115000    1.4075517   -3.6311829   0.20991366   -1.4858857 0.00054645588 
 9116000   0.87832793   -3.7366968   0.51654224   -2.0124537 0.00043002378 
 9117000    0.9440058   -4.0113869   0.73660156   -1.9767774 0.0003528621 
 9118000    1.1425026   -3.6258497   0.52365406   -1.5312546 0.00017942691 
 9119000    1.3477566    -4.209797   0.88915654   -1.4674751 -9.1846842e-06 
 9120000    1.0451582   -4.2929578   0.66965198   -2.1862132 -0.00016695889 
 9121000    1.0881506   -4.1085023   0.77334082   -1.8389545 0.00016754785 
 9122000   0.95954885   -3.6764072   0.45602834   -1.9009992 1.8038164e-05 
 9123000    1.0442542   -3.6083741   0.55937022   -1.6131544 -8.3227879e-06 
 9124000   0.78422741   -3.9057386   0.57102825   -2.2563976 0.00035481122 
 9125000   0.70482446   -3.7849055   0.61680114   -2.1989708 0.0001165331 
 9126000   0.67591441   -4.3303827   0.78786135   -2.6131391 -0.00042063861 
 9127000    1.0243094   -4.3602483   0.32482265   -2.6270002 -0.00012820388 
 9128000    1.0267767   -4.3967688   0.71847751   -2.2664733 -0.00056770874 
 9129000    1.1633586   -4.2581315    1.2329788   -1.4255346 -0.00017991441 
 9130000   0.91404027   -3.7626858   0.97507705   -1.5308034 -0.00015257073 
 9131000   0.74558395   -4.0641793   0.49518039   -2.5438209 -0.00016986209 
 9132000   0.79237543   -3.3706217   0.26888906   -2.0122164 0.00013559372 
 9133000    1.1746865   -3.8409927   0.42184178    -1.803957 0.00013024525 
 9134000   0.70508899   -3.6004698   0.52211232   -2.1088601 0.00039819564 
 9135000   0.94666267   -3.9829867   0.29344257    -2.387883 -0.00033545619 
 9136000   0.95394472   -3.1266458   0.40260648   -1.4123653 0.00019981287 
 9137000   0.79514452   -3.6860164   0.47539433   -2.1172983 -0.00027361507 
 9138000   0.85200413   -3.7552789   0.59783779   -1.9859354 -0.0004947477 
 9139000    0.9960064    -3.849976    1.0642919   -1.4161753 0.00031234446 
 9140000   0.64816679   -3.3053446   0.21086951   -2.2032457 -7.1260021e-05 
 9141000    0.9079449   -4.1324846   0.60773589   -2.2763245 -0.00013844901 
 9142000     1.605801   -3.5478764    1.0177801   -0.3221199 0.00012580856 
 9143000   0.88185952   -3.7921524   0.41701409   -2.1625815 -1.6765967e-05 
 9144000    0.7461804   -4.2022685   0.71537952   -2.4608909 4.1970033e-05 
 9145000    1.2677524   -3.4880714   0.61843787   -1.1264739 0.00062277088 
 9146000    0.9876112   -3.7903714   0.74984745   -1.6825585 -0.00036226122 
 9147000    1.2275685   -3.1425097   0.44260358   -1.0119994 -3.219014e-05 
 9148000    1.1145408   -4.3517876   0.38520883   -2.4340852 -9.0077834e-05 
 9149000   0.96361646   -3.8845353   0.51359156   -2.0459711 -0.00019730591 
 9150000    1.1053602   -4.3075194    0.5392475   -2.2484017 -0.00018380118 
 9151000   0.91176831   -3.8054958   0.46203894   -2.0897754 -0.00026978736 
 9152000   0.87301671   -3.6411026   0.71793147   -1.7227731 -1.5347581e-06 
 9153000   0.71650545   -4.2116215   0.15745641   -3.0689701 0.00027726774 
 9154000   0.66982503   -3.2673331   0.32219839   -2.0241253 1.9085241e-05 
 9155000   0.84742189    -4.234003   0.44032569   -2.6284722 2.0242248e-05 
 9156000   0.95363226   -3.9807406   0.54984258   -2.1196537 2.1709772e-05 
 9157000    1.2137503   -4.0081214   0.55458647   -1.7846283 -0.00011122395 
 9158000   0.88896712   -4.1019581    0.4697355   -2.4098929 -0.00020895905 
 9159000   0.82211024   -4.1197515   0.50321477   -2.4861351 -8.2289864e-05 
 9160000     1.270449   -3.8154552   0.38735359   -1.6812342 0.00017570801 
 9161000   0.65570579   -4.0934681   0.62304149   -2.5688312 -0.00020327774 
 9162000    1.0964453   -4.0641836   0.38108347   -2.1754878 -7.9077575e-05 
 9163000   0.95979572   -3.5553104   0.51390716   -1.7216842 -0.00014150168 
 9164000    1.1586008   -3.7355634   0.25076828    -1.891719 0.00015736092 
 9165000   0.82120222   -4.3065622   0.10708994   -3.0703192 -0.00012287626 
 9166000    1.2591841    -4.243508   0.58926151   -1.9228684 -1.7290766e-05 
 9167000   0.98209051   -4.2168124    0.3734065   -2.4930314 8.2124923e-05 
 9168000   0.66148918   -3.8075118   0.23103494   -2.6669293 0.00027202624 
 9169000   0.99594039   -3.3540273   0.35251819   -1.6320911 7.2909763e-05 
 9170000    1.0331735    -4.232951    0.4635435    -2.348794 -0.00021960696 
 9171000   0.98725061   -3.6471297   0.90657684   -1.3830833 -0.00028478819 
 9172000   0.75376367   -3.5948235   0.61309158   -1.9453069 -5.7360231e-05 
 9173000   0.72499217   -3.9201975   0.48684358   -2.4364897 0.00022557358 
 9174000    1.3581196   -4.3401232   0.30510797   -2.1676008 -2.7612177e-05 
 9175000    1.4326457   -3.4458425   0.48486603  -0.99108857 -9.7706618e-05 
 9176000    1.1379818   -4.0182302   0.33088277   -2.1226224 0.00039039451 
 9177000    1.0992729   -3.8719295   0.29680028    -2.063629 -0.00015401029 
 9178000    1.4154374   -4.0523929   0.45814325   -1.6480232 0.00048816503 
 9179000    1.2594563   -3.5432449   0.57191526   -1.2395771 0.00035279667 
 9180000   0.89916448   -3.9427497   0.69507426   -2.0113242 -0.00018139085 
 9181000   0.97418183   -3.9894589   0.23503739   -2.4149215 -1.828492e-05 
 9182000     1.258991   -3.9591641   0.21585487   -2.0121966 9.6150699e-05 
 9183000   0.73609143   -3.8453746   0.47253809   -2.3607107 -0.00010677637 
 9184000    1.6034963   -4.0946708   0.72405343   -1.1658099 -0.0002466021 
 9185000    1.5887498   -4.2967041   0.58538769   -1.5267854 -0.00028657154 
 9186000   0.70165568   -3.5178091   0.39324691   -2.1597857 -0.00014442358 
 9187000   0.79002635   -3.7860791    0.3111385   -2.3886544 -3.8098982e-05 
 9188000    1.2166386   -3.6663892   0.65232071   -1.3411904 6.941532e-05 
 9189000    1.0600918   -3.9344841   0.18752581   -2.2893321 0.00019154405 
 9190000   0.88344924   -3.4452065   0.38960159   -1.8408622 0.00041161702 
 9191000    1.4910536   -4.0075458   0.37384744   -1.5834997 -1.4094296e-05 
 9192000   0.53454535   -3.8054816   0.18998271    -2.880499 0.00023523191 
 9193000    1.2223068   -4.0274198   0.53094904   -1.8157988 0.00021633591 
 9194000   0.86237321   -4.1612326   0.17413291   -2.8013365 0.00022048282 
 9195000    1.0795874   -4.1079938   0.59200864   -2.0315526 -0.00014343198 
 9196000   0.56168038   -4.1666689   0.60755851   -2.7867998 -0.00019394354 
 9197000    1.5782793     -4.22773   0.33430208   -1.7232939 -0.00017085167 
 9198000   0.98462074   -3.3361923   0.40636371   -1.5759751 0.00023061867 
 9199000    1.2948139   -4.0836005   0.46793685   -1.8352945 0.00027993264 
 9200000    0.7236095   -4.3300048    0.7205635   -2.6144783 -0.00025237945 
 9201000    1.2364026   -4.0209766   0.38846224   -1.9324608 0.00019844412 
 9202000    1.1489397   -3.7398135   0.32113322   -1.8388881 -0.00014013476 
 9203000   0.68759891   -3.8055564   0.29496276   -2.5651452 -6.1765849e-05 
 9204000   0.76062814    -3.356062   0.39248632    -1.917712 -0.00019150078 
 9205000    1.1864658   -3.9890565     0.402022    -1.955644 0.00041083122 
 9206000   0.87342706   -4.5302796   0.42078537    -2.908532 -0.00016605909 
 9207000    1.1984842   -3.5594234   0.52354277   -1.3879648 4.5070363e-05 
 9208000   0.63572182   -4.1831981   0.80508131   -2.5039993 -1.3105646e-05 
 9209000   0.94033791   -3.6248884    0.4369876   -1.8949362 6.8688714e-06 
 9210000    1.0265614   -4.0305923   0.34201366   -2.2770567 0.0002686652 
 9211000    1.0003413   -4.1468007   0.31137667   -2.4599547 7.0768896e-05 
 9212000    1.3832488   -4.2671397   0.58203388   -1.7831388 1.1964036e-05 
 9213000    1.5704109   -4.1334817   0.41028485   -1.5638819 9.4895672e-05 
 9214000    1.2446952   -4.1304322   0.40003952   -2.0189368 0.00015659668 
 9215000   0.63963019   -4.1078389   0.74869756   -2.4796498 4.4450076e-05 
 9216000    1.0658829   -4.0095671    1.0897295   -1.4542486 0.00014657017 
 9217000   0.66539115   -3.6777595   0.29520567    -2.467641 -0.00010986768 
 9218000    1.5877983   -4.1318487   0.28582053   -1.6628055 -1.5999157e-05 
 9219000    0.9909612   -3.9253382   0.58987446   -1.9728921 6.1964842e-05 
 9220000    1.0140064   -4.1308383   0.64071068   -2.0958688 0.00017665906 
 9221000   0.72969231    -4.210092   0.77858433   -2.4281807 -0.00029531475 
 9222000     1.015901   -3.7691593   0.63967222   -1.7326232 0.00030163728 
 9223000    1.2092414   -3.7482818   0.77674122   -1.3088336 0.00046292923 
 9224000   0.74830797   -3.7279229   0.41815821   -2.2808413 -5.8215767e-05 
 9225000    1.0442185    -3.707351   0.54520246    -1.726348 -4.2073616e-05 
 9226000   0.77895506   -3.9660719   0.87259518   -2.0224135 0.00012574435 
 9227000    0.8170441   -4.4340601   0.31837475   -2.9922498 0.00022431096 
 9228000     1.048642   -3.9523995    0.4802342   -2.0302826 0.00010346716 
 9229000    0.8097024   -4.0366265   0.27337718   -2.6499085 8.7539034e-05 
 9230000    1.0797894   -4.1019409    0.3114475   -2.3057829 0.00019801463 
 9231000   0.84597393   -4.0220033   0.34991669   -2.5088725 0.00020564431 
 9232000   0.57048963   -4.2205585   0.82110682   -2.6150284 -0.00011184195 
 9233000   0.88357316   -3.8974032   0.70728772   -1.9752024 -0.00030810332 
 9234000    1.0847348    -3.589485   0.45894504   -1.6390297 0.00033902727 
 9235000    1.0100336   -3.7876367   0.31246812   -2.0863724 -3.5039235e-05 
 9236000   0.63702046   -4.1303314   0.36698751   -2.8874408 0.00025396092 
 9237000   0.79627563    -3.460376   0.72062258   -1.6448745 0.00017161293 
 9238000    1.2593816   -3.7582937   0.64272359   -1.3839203 6.0363548e-05 
 9239000   0.91322739   -4.0654074   0.57002347   -2.2396962 0.00015222831 
 9240000    1.1100422   -3.5677939   0.47596051   -1.5655254 5.2427356e-05 
 9241000    1.0493076   -4.3517129   0.41263279   -2.4962822 -0.00016052663 
 9242000    1.7021037   -4.0308788   0.53195219    -1.158534 0.00027833914 
 9243000   0.87381284   -3.7928606   0.39692358   -2.1944443 0.00042218356 
 9244000    1.0122913   -3.9765975     0.905348    -1.679349 -5.7432801e-05 
 9245000   0.88773802   -3.0630961   0.44288585   -1.3995705 0.00022552938 
 9246000    1.6469737    -3.685315     0.539337  -0.88138922 0.00035241209 
 9247000   0.89073825   -4.0926854    0.3367661   -2.5311542 0.00015532525 
 9248000    1.1614016   -3.9653782   0.65165595   -1.7167951 0.00016395705 
 9249000    1.0539424   -4.1169492     0.786231   -1.8815474 -0.00018184241 
 9250000   0.97572728   -3.8403961   0.41717664   -2.0815945 7.4712166e-05 
 9251000    1.0527867   -4.0231415   0.77297768   -1.8025821 -0.00012376394 
 9252000     1.047347   -3.6563805   0.32567339    -1.890605 9.9568617e-05 
 9253000    1.1889375   -3.7578972   0.27415442   -1.8489537 -9.9522218e-05 
 9254000   0.83761412   -3.7621185   0.30165262   -2.3087464 -4.5422452e-06 
 9255000    0.9004658    -3.959372   0.90811361   -1.8131179 6.8858636e-05 
 9256000   0.65004635   -3.6665253   0.42805989   -2.3446517 5.6584194e-05 
 9257000   0.45546771   -3.8888518   0.38628346   -2.8763002 0.00017702784 
 9258000   0.99510959   -3.8050045   0.26399233   -2.1727365 -1.5029641e-05 
 9259000   0.48074995    -3.861139   0.32970984    -2.870398 0.00032555504 
 9260000    1.1722499   -3.8230854   0.49889727   -1.7123445 0.00016663901 
 9261000    1.5847325   -4.2304206   0.82823853   -1.2231749 0.00016236989 
 9262000   0.95527162   -3.8494943    0.4741524   -2.0618434 0.00014952722 
 9263000    1.0708776   -4.0654728   0.75030193   -1.8427141 0.00018179944 
 9264000   0.84226922   -4.1172008   0.27368129   -2.6853993 8.5010052e-05 
 9265000   0.94561732   -3.5634652   0.44796856   -1.8152728 -0.00040076653 
 9266000    1.0078876   -4.2519434   0.49556333   -2.3705346 0.00016726421 
 9267000   0.55518385     -3.97658   0.51398144   -2.6992208 0.00035753057 
 9268000    1.1536292   -3.8936218   0.34758063    -1.959801 -2.9410633e-05 
 9269000    0.8827235   -4.0537514   0.46985024   -2.3701564 -0.00016642379 
 9270000   0.99288081   -4.3668193   0.43725461   -2.5643536 -6.7258664e-05 
 9271000     1.329645   -4.2343401   0.41478251   -1.9912958 8.3114573e-05 
 9272000   0.81556152   -3.2617446   0.22064611   -1.9197014 -3.5439994e-05 
 9273000   0.47769338   -3.8617753   0.40105169   -2.8038952 0.00023475354 
 9274000    1.0675665   -3.9576473    0.5923236   -1.8974198 -0.00017423542 
 9275000   0.89238271   -3.9478603   0.35865764   -2.3621765 -0.00014346051 
 9276000    1.3350797   -4.1984633    0.4029774   -1.9597513 -0.00014215586 
 9277000    1.1498594   -3.9903358   0.41385066   -1.9954285 -0.00011141499 
 9278000    1.0173487   -4.2119828   0.25316046   -2.5599679 -9.1744499e-05 
 9279000    1.4326519   -4.4411355   0.48481261   -1.9864265 -0.00028766898 
 9280000   0.78408948   -4.0352938     0.332012   -2.6251588 -0.00024444218 
 9281000    1.1311549   -3.9075851   0.27107785   -2.0811692 -9.3365516e-05 
 9282000    1.4504493   -3.8996533   0.47264727   -1.4326383 0.0003140811 
 9283000   0.95257992   -4.4993023   0.59348058   -2.5960243 -0.00022507417 
 9284000    1.5270648   -4.2068205   0.32886407   -1.7782424 0.00010590404 
 9285000   0.96707164   -4.2716012   0.50820263   -2.4336751 -0.00053658212 
 9286000   0.54158175   -3.9730872   0.30866384   -2.9197485 0.00011337373 
 9287000   0.91541371   -3.7747866   0.59367025   -1.9224225 0.0001703435 
 9288000   0.83538212   -4.0606445   0.17984654   -2.7321475 0.00019843366 
 9289000   0.85094525   -4.3818895   0.41181127   -2.8000285 -0.00012565875 
 9290000    1.2104681   -4.0884931   0.37029855   -2.0538009 0.00017658507 
 9291000    1.5782069   -4.2918881   0.46305426   -1.6587993 0.00021429028 
 9292000    1.2052584   -3.7832065   0.48368206   -1.6422941 -0.00061889668 
 9293000   0.95332964   -4.3845177   0.60886662   -2.4648228 -0.00025938061 
 9294000    1.2082667   -3.8781289   0.26524492   -1.9515173 0.00014728823 
 9295000   0.82696183   -4.0271196   0.58031853   -2.3097285 -0.00053694323 
 9296000   0.98169967   -4.2107672   0.59500333   -2.2659268 1.7132465e-05 
 9297000   0.65309904   -4.0308572   0.45911224   -2.6737338 8.747573e-06 
 9298000    1.1558223   -4.0933568   0.73053349   -1.7735677 -0.00010565373 
 9299000    1.1519764   -3.9666138   0.22853149   -2.1541147 2.5390498e-05 
 9300000   0.72060869   -4.1207522   0.23830442   -2.8916108 -0.00021789668 
 9301000    1.1079406   -4.0109074   0.26892005    -2.218569 -1.6291572e-05 
 9302000    1.3868372   -3.5544667   0.26662719   -1.3809382 -0.00032442009 
 9303000   0.86953586   -4.0739801   0.35325133    -2.525117 -8.9095971e-05 
 9304000    1.1608786   -4.1629061   0.54864178   -2.0180562 -0.00019151274 
 9305000    1.0471741   -3.8699052   0.18516384    -2.244877 0.00027885019 
 9306000   0.77096354   -3.9457206   0.28129156   -2.6043542 -0.0001042492 
 9307000   0.72191901   -4.2610853   0.76178474   -2.5066619 -0.00014317307 
 9308000   0.84229322   -4.1886864  0.066560132   -2.9639731 0.00053564634 
 9309000   0.79656288   -3.8310346   0.31301896   -2.4227417 3.9910925e-05 
 9310000   0.93792482    -4.368489   0.59283279   -2.4860096 -0.00029508342 
 9311000   0.96883385   -4.0912218    0.4523858   -2.3066895 -0.00039201697 
 9312000    1.6600827   -3.9597068    0.3994213   -1.2776719  3.18928e-05 
 9313000    1.1644185   -4.0928236    0.3221864   -2.1695618 -0.00012437194 
 9314000    0.8443877   -4.3871888   0.27664167    -2.949514 -0.00026212939 
 9315000   0.96031918   -4.3922481   0.47456104   -2.5972482 -0.00038798727 
 9316000    1.1189399   -4.0160783   0.34328095    -2.134255 0.00031341543 
 9317000    1.3305326   -3.7732033   0.41228791   -1.5314331 -8.8347786e-05 
 9318000   0.86483808   -3.7425899   0.47703258    -2.076405 0.00071226757 
 9319000   0.65663603   -3.9808114   0.50032037   -2.5776165 -9.5253327e-06 
 9320000    1.2437451   -4.3012187   0.44473413   -2.1463351 0.00011094016 
 9321000   0.62692869   -4.0667203   0.36960461   -2.8350887 -0.00039612672 
 9322000   0.85448456   -4.0374767   0.71199329   -2.1505672 -8.5836721e-05 
 9323000   0.68172293   -4.0862365   0.39025602   -2.7586115 0.00033532139 
 9324000   0.87402483   -3.6741976    0.1606189   -2.3117945 -0.00013774248 
 9325000    1.5350448   -3.8152471   0.56453068   -1.1400299 -0.00021188269 
 9326000    1.4247409   -4.2307147    0.3169412   -1.9547548 -0.00010186415 
 9327000   0.66904372   -4.1395107   0.64315828   -2.5764173 -3.0397405e-05 
 9328000   0.96618313   -3.3491867   0.49594484     -1.52474 -0.00015880551 
 9329000     1.156879   -3.8542645   0.62737658   -1.6361793 0.00020772292 
 9330000   0.98597592   -3.8557902   0.23457346   -2.2654999 -5.3172593e-07 
 9331000    1.0158557   -3.6339794   0.24856582    -1.988612 0.00010340612 
 9332000    1.1668623   -4.5145373   0.57888468    -2.331217 -6.0520102e-05 
 9333000   0.75912857   -4.3565337   0.56811268   -2.7446192 -2.329977e-05 
 9334000    1.1079593   -4.1321007   0.38343723   -2.2252194 -0.00015189152 
 9335000    1.2007618   -3.8954234   0.87614126   -1.3682347 -0.00041843789 
 9336000    1.0185333   -4.4176763   0.50159342   -2.5155996 -3.318478e-05 
 9337000   0.49185051   -4.1008705   0.22816037   -3.1964157 0.00015053846 
 9338000    1.6111187   -4.2957289   0.47646979    -1.603971 0.00013162777 
 9339000     1.033283   -4.3440877   0.63355647   -2.2897672 0.00015943663 
 9340000    1.3682345   -4.0040312   0.49039418   -1.6323146 0.00013034754 
 9341000   0.92847647   -3.8707653   0.73965923    -1.854451 -0.00015691109 
 9342000    1.1106651   -4.1320227   0.55860315    -2.046255 -0.00028125348 
 9343000    1.0357342   -4.0591432   0.30893453   -2.3260742 0.00027820864 
 9344000    1.0127733   -4.1901049   0.31661732   -2.4809243 0.00024135289 
 9345000    1.0018965   -3.8494857   0.43745932   -2.0344187 0.00036489541 
 9346000    1.3561845   -3.4650744   0.59589447   -1.0044262 -0.00016504309 
 9347000   0.93989552   -4.0857865   0.69756306   -2.0958671 0.00031781997 
 9348000    1.1728311   -3.6393742   0.52597815   -1.5007534 -0.00013868454 
 9349000    1.1022757   -4.3199812   0.43795657   -2.3663956 0.00021552753 
 9350000   0.82657245   -4.0936561   0.34935109   -2.6077678 -0.00033841964 
 9351000   0.78011583   -4.2283959   0.30092376   -2.8548129 9.4378699e-05 
 9352000   0.87470266   -3.8001262    0.4382401   -2.1591699 0.00023713662 
 9353000   0.73993917   -4.2029242   0.72495473   -2.4605531 -0.00025222296 
 9354000   0.84088657   -3.9909725   0.39425154    -2.440502 0.00028466743 
 9355000   0.93956252   -3.2423703   0.46625992   -1.4842119 8.4443255e-05 
 9356000    1.3151809   -4.3553795   0.29594637   -2.2510595 -6.4670868e-05 
 9357000   0.83306825   -3.9685569   0.64563807     -2.17745 -0.00044149593 
 9358000   0.59404653   -4.1115579   0.52069531   -2.7740486 0.00013157145 
 9359000   0.75542016   -3.8379703   0.32899904   -2.4702685 0.00024247234 
 9360000   0.71942432   -4.0045115   0.41773381   -2.5975693 0.00055059449 
 9361000   0.78303179   -3.9779397   0.54237981   -2.3588912 -1.6302391e-05 
 9362000    1.3338674   -4.1970273   0.64104702   -1.7219126 0.00053695982 
 9363000    1.2920365   -3.8190189    1.0863887  -0.95607999 -0.00025360405 
 9364000   0.89168706    -4.140009   0.76458915   -2.1493502 -0.00051861535 
 9365000    1.4634673   -4.0754046   0.29927994   -1.7638571 6.0155556e-05 
 9366000    1.0696077   -4.2508514   0.44583682    -2.334304 2.1190313e-06 
 9367000    1.2104179   -3.6117214   0.36430039   -1.5830964 -1.5764891e-05 
 9368000    1.0276416   -4.2115406   0.45459548   -2.3439379 0.00022490615 
 9369000   0.93423443   -3.9742058   0.19249895   -2.4971345 0.00031781981 
 9370000   0.83685455   -4.2258957   0.48619586   -2.5890248 5.6795046e-06 
 9371000   0.82919901    -4.422676   0.32246664   -2.9600607 0.00048794647 
 9372000   0.73657279   -3.7541368   0.64323539   -2.0981138 -0.00011524892 
 9373000    1.5141125    -3.857761   0.56085933   -1.2149969 0.00043396536 
 9374000   0.87593757   -4.1941822    0.4546281   -2.5351399 -0.00030323649 
 9375000    1.0363212   -3.8658133   0.40315756    -2.037714 -3.2677482e-05 
 9376000    1.2732402   -3.4581581   0.72138917  -0.98606364 -0.00055541714 
 9377000   0.82692854   -4.2083676    0.5703739   -2.5009669 -0.00022696337 
 9378000    1.1561205   -4.2964074   0.57397512   -2.1327666 0.0003081016 
 9379000    1.0306331   -4.2301039   0.51619859   -2.2967849 1.0297184e-05 
 9380000    1.0203369   -4.2099093   0.26692968   -2.5400164 0.0002549153 
 9381000   0.90140791   -3.5189948   0.43199238   -1.8475666 -8.0328014e-05 
 9382000    1.1469907   -4.3123423   0.51414709    -2.221083 0.00013368612 
 9383000   0.79247217   -4.0082612   0.10065733   -2.8179546 0.00032720014 
 9384000    1.3103967   -4.3460097   0.46072197   -2.0834923 0.00020730486 
 9385000   0.95117024   -4.2439048   0.58813088   -2.3479148 0.00014832669 
 9386000   0.72118358   -3.9771209   0.30675737   -2.6787361 0.00051084979 
 9387000    1.2329351   -4.1891584   0.43086493   -2.0630077 -0.00029348194 
 9388000   0.94551301   -3.3991095   0.63029615   -1.4687329 0.00074598084 
 9389000    1.3406794   -4.3516389   0.24284145   -2.2653633 0.00034158125 
 9390000     1.409439   -3.7655219    0.2253425   -1.6022007 0.00010143231 
 9391000    1.0100241   -4.2592136   0.37705041     -2.49338 -2.7085712e-05 
 9392000    1.0532018   -3.3538927    0.4371433    -1.468597 -0.00046918308 
 9393000     1.217743   -4.2169647     0.258765    -2.283803 0.00010344465 
 9394000    1.1082756   -3.7976883   0.26961501   -2.0041943 -4.079191e-06 
 9395000     1.515616   -4.0881124   0.57752442    -1.426616 7.4127921e-05 
 9396000   0.70684943   -3.6090692   0.69403624    -1.943115 -1.7395233e-05 
 9397000   0.70432894   -4.4106999   0.22353039   -3.2187172 5.3615634e-05 
 9398000    1.2848703   -4.1433086   0.41818651   -1.9584254 3.6739973e-05 
 9399000   0.73743134   -3.8410314   0.20489171   -2.6221716 -7.6643639e-05 
 9400000    1.4201899   -3.6526719    0.5749056   -1.1250052 -0.00017380972 
 9401000    1.0442361   -3.8002276   0.35672188   -2.0076811 -0.00014517409 
 9402000   0.87268645   -4.3832513   0.46405452   -2.7192529 -1.8470399e-05 
 9403000    1.0840042   -3.8245025   0.53443574   -1.7995609 7.6560476e-05 
 9404000    1.2026947   -3.9403091   0.58279589    -1.703808 -0.00013592519 
 9405000   0.98358912   -3.8990028    0.3517672   -2.1948006 -0.00040472396 
 9406000    1.0349306   -4.0464335   0.40886538   -2.2145385 -3.8399473e-05 
 9407000   0.85502586   -4.0498522   0.52028567   -2.3539059 0.00023202207 
 9408000   0.72402483   -3.9616093   0.33731707   -2.6287581 -0.00015731514 
 9409000     0.917191   -3.8097461   0.16959917   -2.3790093 0.00025881072 
 9410000   0.80847505   -3.8294432   0.90893854   -1.8088515 -0.00034800929 
 9411000   0.72151222   -4.4301064   0.51107782   -2.9269493 -3.2884524e-05 
 9412000   0.89566276    -3.902798   0.46498072    -2.206281 -0.00040730725 
 9413000   0.83730753   -3.7456418   0.60234812   -1.9919958 0.00030052354 
 9414000    1.0549502   -4.1033536    0.6890833   -1.9637137 0.00025735292 
 9415000    1.3459765   -4.0500375   0.42765414   -1.7716657 8.9718821e-05 
 9416000   0.95852202   -4.0200469   0.63721037   -2.0648687 -0.00017346573 
 9417000     1.373698   -3.5692944   0.43772541   -1.2427343 0.0001937755 
 9418000   0.81587162   -3.9925461   0.31523462    -2.555488 0.00014831058 
 9419000    0.8500442   -3.7490984   0.31898051   -2.2613072 -0.00034962211 
 9420000    1.1644936   -4.0493462   0.37928207   -2.0688854 0.00035716534 
 9421000    1.0530717    -3.445986   0.22213787   -1.7758746 0.00032637538 
 9422000   0.70758623   -3.7114435   0.32211983   -2.4163926 -0.0001126407 
 9423000    0.9977695   -4.2646443   0.47454739   -2.4181638 -0.00014121561 
 9424000    1.0937527   -3.4609501   0.27251817   -1.6845221 0.00019820333 
 9425000    1.2307267   -3.9498589   0.51833669    -1.739273 -0.00024333329 
 9426000   0.63872003   -3.8284508    0.4622919   -2.4879188 0.00037613379 
 9427000     0.718558   -3.9221073   0.55697647   -2.3771136 -5.4606292e-05 
 9428000    1.3631494   -3.5765097   0.27229747   -1.4298818 0.00039583446 
 9429000   0.67703601   -3.3972165    0.5661172   -1.9001748 -0.00016110324 
 9430000   0.68942962   -3.8501984   0.45412671    -2.448106 -5.8963518e-05 
 9431000   0.98304735   -4.1837124    0.6671792   -2.1648431 0.00016569138 
 9432000   0.98750257   -4.0130624   0.26978301   -2.3854634 -5.6295862e-05 
 9433000    1.0004011   -3.2810074   0.96124986  -0.94420597 -0.00032001144 
 9434000   0.97742177   -3.3071911   0.64133414   -1.3219021 -0.00017259433 
 9435000    1.0189139   -3.9033733   0.41189887   -2.0904678 3.4939814e-05 
 9436000    1.2747241   -3.8226155   0.49831787    -1.571552 0.00012410688 
 9437000   0.71437241   -3.9825762    0.4342256   -2.5660885 7.1685381e-06 
 9438000    0.7114099   -3.7377795     1.224005   -1.5355859 -0.00049449709 
 9439000   0.72090326   -3.8423815    0.2176527   -2.6334868 -3.4692917e-05 
 9440000   0.84373507   -3.8239752   0.39449568   -2.2693438 0.00039232595 
 9441000    0.8583493   -3.8328354   0.54981074   -2.1027943 0.0001238973 
 9442000    1.5061961   -4.3942223   0.48912012   -1.8340826 0.00037238229 
 9443000    1.0902198    -3.752114   0.78182337   -1.4712385 -5.3874897e-08 
 9444000    1.0096737   -3.9965242   0.80153351   -1.8066893 -0.00022628008 
 9445000   0.63828283   -3.0399746   0.37379924   -1.7885364 -0.00014717997 
 9446000    1.2973107   -4.1084237   0.33604934   -1.9885721 -8.5245915e-05 
 9447000   0.91806736   -4.0354598    0.4480575   -2.3250597 -0.00012913793 
 9448000    1.0941489   -3.6227642    1.3933152  -0.72499417 -0.00021642902 
 9449000   0.70748342    -3.825156   0.37893064   -2.4734356 0.00014444774 
 9450000    1.1174702   -3.8217956    1.1370392   -1.1482349 -0.0004067883 
 9451000   0.84421915   -4.0497275   0.64088527   -2.2480409 0.00036401162 
 9452000   0.79701821   -3.8806046   0.51479841   -2.2699061 -0.0001651805 
 9453000    1.2612152    -3.964909   0.39144821     -1.83929 -0.00012730075 
 9454000    1.3563767   -3.9730354  0.093285853   -2.0147316 4.8743583e-05 
 9455000    1.1217124   -4.2477135   0.58909031   -2.1162686 -0.00041766499 
 9456000   0.61216093    -3.954235   0.46063842   -2.6518753 -0.00037468544 
 9457000    1.0238924   -3.7388536   0.75858776   -1.5724137 -6.3566043e-06 
 9458000    1.2621392   -3.9910064   0.43380618   -1.8217588 -0.00010001736 
 9459000   0.92059106   -4.0846252    0.5129867   -2.3058258 -0.00010885444 
 9460000   0.85716667   -4.4286335   0.73925822   -2.5107711 -0.000117531 
 9461000   0.71855643   -3.5250144   0.62984258   -1.9071567 -7.7952705e-05 
 9462000    1.2733867    -4.270409   0.51189951   -2.0076028 -6.8490631e-05 
 9463000    1.6139988   -4.0908971   0.63402563   -1.2376231 0.00043972896 
 9464000   0.95415025   -3.4553717   0.25213848   -1.8912766 -5.9686436e-06 
 9465000    1.0312167   -3.9088584   0.27481333   -2.2161222 0.00051613694 
 9466000   0.64468424   -3.8616127   0.37363757   -2.6015343 -0.00018370037 
 9467000    1.3143577   -3.8005096   0.55747839   -1.4357894 -0.00014374833 
 9468000   0.91601727   -3.5608846   0.34002228   -1.9613386 0.00039518876 
 9469000    1.2062839   -4.2999239   0.61182581   -2.0294577 -8.1097481e-05 
 9470000   0.74679669   -3.5093161   0.22188095   -2.2605897 -0.00018371603 
 9471000   0.66827839   -3.3841225    0.8600985   -1.6051412 -0.00035223004 
 9472000   0.75889817   -3.7727786   0.25850528   -2.4707883 0.00014865473 
 9473000    1.2035498   -4.0038164   0.65656088   -1.6923746 0.0002297634 
 9474000   0.92227932   -4.2026118   0.71187971   -2.2225981 -0.0003759826 
 9475000   0.83287368   -3.9674789   0.24924655   -2.5730311 -0.00017811744 
 9476000   0.90067233   -3.5131387   0.34261793   -1.9320963 -0.00017735005 
 9477000   0.99260923   -3.8874471   0.34793299   -2.1746764 0.0001471691 
 9478000    1.0342284   -4.1628811   0.73995795   -2.0008591 -0.00020921265 
 9479000    1.0047391   -3.9979573   0.49935014   -2.1170908 0.00019351668 
 9480000    1.3575642   -3.7982323   0.64085515   -1.2907264 -0.00018196051 
 9481000   0.83476479   -4.0836501   0.30779239   -2.6280561 -1.2575514e-05 
 9482000     1.134411   -3.6434507    0.2326767   -1.8509588 7.5439096e-06 
 9483000    0.7486981   -2.8922848   0.54270517   -1.3201197 -0.00043857935 
 9484000    1.1208928   -3.7131326   0.52091157   -1.6509934 0.00011624705 
 9485000   0.86120828   -3.4636734   0.52968864   -1.7498234 0.00028085398 
 9486000   0.54562222   -3.3778951   0.51328124   -2.1143833 -0.00029549667 
 9487000    1.2874701   -3.5248513   0.32449252   -1.4300873 0.00028041284 
 9488000    1.1148268   -3.9517248   0.42831272   -1.9905252 -0.00010100406 
 9489000    1.2795684   -4.3033504    0.4950062   -2.0489377 0.00020203646 
 9490000    1.1540323   -3.7611439   0.70283954   -1.4715099 -0.00023633863 
 9491000   0.84506822   -4.2110015   0.59632025   -2.4527124 -0.0002605827 
 9492000    0.6357023   -4.3635167   0.39823324   -3.0911928 0.00018290482 
 9493000    1.0447012   -4.3249123   0.39055236   -2.4978959 -6.3924668e-05 
 9494000   0.85715352   -3.5008409   0.53561691   -1.7866379 -0.00032221601 
 9495000   0.99806589   -4.0017347    1.1070838   -1.5223102 -0.00055424153 
 9496000   0.73360008   -4.1846358   0.45740364    -2.718532 0.00065061467 
 9497000   0.45142759   -3.9195676   0.72701617   -2.5718385 -2.2772783e-05 
 9498000    1.5791377   -4.0562052   0.42984619   -1.4550447 -3.106839e-05 
 9499000    1.1917724   -3.6468935   0.55653593   -1.4516705 -0.00021726521 
 9500000   0.88279637   -4.0935611   0.45696187   -2.4227542 -0.00013838052 
 9501000    1.3418938   -3.4791105   0.94779058  -0.68621593 0.0001622999 
 9502000    1.3751173    -3.919887   0.45512487   -1.5739758 0.00010975125 
 9503000   0.56009676   -3.7588626    0.2706075   -2.7181221 0.0004667204 
 9504000   0.92599338   -3.7692302   0.58173348   -1.9142558 0.00052135311 
 9505000   0.70994737   -4.2469502   0.65889803   -2.6118746 -0.00031140293 
 9506000   0.94713452   -4.4210429   0.49891436   -2.6198185 0.0001634666 
 9507000    1.5584337   -3.5197953   0.92026564  -0.45668332 -0.00020273281 
 9508000    1.1411709   -4.1716127   0.37474192   -2.2277608 0.00014379823 
 9509000    1.0861567    -3.931596   0.66826705   -1.7698635 0.00016318139 
 9510000    1.3422217   -4.0253999    0.5416525   -1.6381926 -0.00028563385 
 9511000    1.0439002   -3.8640669   0.39651982   -2.0321842 -0.00019978062 
 9512000    1.0866817   -4.2813822   0.56738121   -2.2198136 -0.00036706398 
 9513000   0.81928545   -3.4470338   0.62535047   -1.6951659 -7.4486936e-06 
 9514000    1.1217411   -4.3189057   0.24662406   -2.5298877 -0.00020909696 
 9515000    1.0415998   -3.7822787   0.57239851   -1.7776804 0.0001818765 
 9516000   0.95557321   -4.3352863   0.40068311     -2.62069 -0.00029045791 
 9517000    1.5645455   -4.2799577   0.52463435   -1.6040733 1.5772583e-05 
 9518000    1.2378215   -4.2024434   0.36950634   -2.1309325 4.6932004e-05 
 9519000    1.0610143   -3.5906812   0.76175857   -1.3700279 0.00024159592 
 9520000    1.2160558   -3.9440394    0.2386087    -2.033354 0.00025582765 
 9521000    1.1660222     -3.92911    1.0893809   -1.2364486 -0.00076604203 
 9522000   0.86003793     -3.82468   0.47981879    -2.162309 0.00012443834 
 9523000    1.2912402   -4.3674907    1.0713508   -1.5206847 -0.00027994001 
 9524000   0.71133457   -4.0481857   0.21839621   -2.8517044 -0.00014938236 
 9525000    1.0360771   -4.3247307   0.88697793   -2.0131467 0.0001250605 
 9526000   0.94787969   -4.2749569    0.5697294   -2.4018929 7.3948695e-06 
 9527000   0.98356591   -4.2699305   0.86891701   -2.0486103 6.5184115e-05 
 9528000    0.4983328    -4.369067   0.29456633   -3.3892931 -0.00013030195 
 9529000   0.59786546    -3.986768    1.1161813   -2.0485217 4.9150937e-05 
 9530000    1.3524383   -4.0288678   0.15320101   -2.0160642 0.00038727325 
 9531000   0.74486821   -3.4965933   0.36235335   -2.1100462 0.0004139981 
 9532000   0.65505105   -3.7181105   0.44361029   -2.3738051 -2.4329652e-06 
 9533000   0.68008237   -3.5153463   0.43430372   -2.1459293 -0.00029694709 
 9534000    1.2849069   -4.1591845   0.11612477   -2.2763127 0.00018555808 
 9535000    1.4724085   -4.1266717   0.99605678   -1.1060533 0.00019773645 
 9536000    1.0775171   -4.1773464   0.35274578   -2.3430145 -0.00029302451 
 9537000    1.5472274   -3.8493283   0.43445992   -1.2874307 0.0001067684 
 9538000   0.70117772   -3.9463665     0.456926   -2.5253211 2.4967204e-05 
 9539000   0.84689083   -3.5169076   0.20223866    -2.150194 -9.0039936e-05 
 9540000    1.2555634   -3.4974002   0.45873548   -1.3122651 2.5381296e-05 
 9541000    1.0126958   -3.9338833    0.5152476   -2.0261791 -0.00017070252 
 9542000   0.85122417   -4.1685016   0.34514479   -2.6529236 1.5877302e-05 
 9543000    1.1215902   -4.3066938    1.1957198   -1.5687874 -0.0002670654 
 9544000   0.68723779   -3.9980123   0.34813301   -2.7049274 0.00013826396 
 9545000    1.4936158   -3.9741065   0.37211238   -1.5482724 0.00045409978 
 9546000   0.79161555   -4.2474535   0.63597167   -2.5230105 -0.00015478872 
 9547000    1.2948606   -4.3489066   0.34719178   -2.2212815 0.00010959017 
 9548000     1.206426   -3.6857936   0.27592642   -1.7510314 0.00014305871 
 9549000   0.84490956   -3.5709864   0.31044744   -2.0987883 0.00013883923 
 9550000   0.87325487   -4.2216843   0.47655681   -2.5444021 0.00013447026 
 9551000    1.1274573   -4.0478412   0.54515983   -1.9524276 0.00013422026 
 9552000   0.89251489    -3.884372   0.39243811   -2.2647259 0.00011674684 
 9553000   0.50121024    -3.705064   0.48667968   -2.5292203 -0.00023824785 
 9554000   0.85112928   -3.9093365   0.53502713   -2.2040067 -2.8616972e-05 
 9555000   0.82656663   -3.8999137   0.44190535   -2.3214792 0.00010234101 
 9556000     1.475667   -4.0871735   0.17654243    -1.881589 0.00041170371 
 9557000    0.8355959    -3.785983   0.67475038   -1.9622882 0.00017030528 
 9558000   0.95921465   -4.3050906   0.28192064   -2.7042498 0.00018466921 
 9559000    1.0401432   -4.3521399   0.92338946   -1.9985535 -0.00024055075 
 9560000     0.639196   -4.0945654   0.32948105   -2.8861899 -0.00027664288 
 9561000    1.5039535   -4.4324635   0.42752683   -1.9370005 3.9397051e-05 
 9562000   0.65604362   -4.0928855    0.1900844   -3.0007411 0.00027219056 
 9563000   0.83039996   -4.3384425   0.64975525   -2.5468873 -0.00016866313 
 9564000     1.142311   -3.4513056   0.42660106   -1.4540269 0.0002205272 
 9565000    1.1662514   -3.7046106   0.28411124   -1.8169036 -3.801777e-05 
 9566000    0.7283769   -3.6363176   0.75684749   -1.8779518 0.0001129433 
 9567000   0.98460622   -4.2736754   0.52627908   -2.3935628 -0.00014822123 
 9568000   0.98180568   -4.3135895   0.20662861   -2.7569781 -9.7132113e-05 
 9569000    1.5112409   -3.9032483   0.38493079   -1.4403613 0.00011549642 
 9570000    1.1294358    -3.991368   0.36849763   -2.0698962 0.00026681283 
 9571000   0.61731926   -3.9280566   0.30044005   -2.7788025 -0.00040102134 
 9572000    1.0730053   -4.1077703   0.31470052   -2.3176874 -0.00013685464 
 9573000    1.2073036   -3.9636638    0.4862065   -1.8174148 5.5426663e-05 
 9574000   0.55692958   -4.0638245    0.5951398   -2.7029065 -7.4630939e-05 
 9575000   0.72745838   -3.6581354   0.30710987   -2.3507703 0.00013600615 
 9576000   0.85654103     -3.82117   0.14020703   -2.5032191 0.00031620766 
 9577000    1.4013711   -3.5975634   0.57268056   -1.0979975 4.7125294e-06 
 9578000   0.94847941   -4.2131695   0.46709388   -2.4419165 6.3172969e-05 
 9579000    1.0983998   -3.9176019   0.30925503   -2.0980471 -0.00022420858 
 9580000   0.90576297   -3.8886148   0.32251974    -2.320671 0.00013723017 
 9581000   0.78640951   -3.0774372   0.46556331   -1.5305608 -0.00012908741 
 9582000   0.78164117   -3.9913291   0.57308348    -2.343489 5.9108922e-05 
 9583000    1.1908659   -4.0928415   0.33932658   -2.1160743 0.00010004571 
 9584000    0.8907686   -4.1512754   0.33184341   -2.5946252 -0.00019140381 
 9585000    1.0870311   -3.7362553   0.27440122   -1.9671863 -0.00015061738 
 9586000   0.96234012   -4.1180352    0.7787959   -2.0160216 -5.2301493e-05 
 9587000   0.98182947   -4.2088258   0.79901445   -2.0597958 0.00018278576 
 9588000    1.0218319   -4.1333332   0.43804805   -2.2902663 -0.00031217798 
 9589000   0.78527643   -3.5545751   0.40887057   -2.0659495 0.00015211129 
 9590000    0.8197097   -3.6410474   0.62584045   -1.8881061 3.1115961e-05 
 9591000    1.4947523   -3.6147796   0.23931435   -1.3201809 5.8635359e-05 
 9592000    0.8574974   -4.0779196   0.33411175    -2.564749 0.00021077091 
 9593000    1.1113947   -3.6146728   0.48760793   -1.5988972 7.5732744e-05 
 9594000    0.7094417    -3.542917   0.29311795   -2.2743167 0.00066817308 
 9595000    1.1180683   -3.4475132   0.70410616   -1.2060631 -8.6222494e-05 
 9596000    1.0225701   -3.9381565   0.23218188   -2.2999407 0.0003100424 
 9597000   0.92511511   -3.5190549   0.61311928   -1.6339023 9.6529553e-05 
 9598000   0.74464095    -4.238071   0.73154436   -2.4826453 -5.3400834e-05 
 9599000    1.0583452   -3.8771023   0.30406588   -2.1178117 -8.8595877e-05 
 9600000    1.5072228   -3.9387337   0.22684019   -1.6394621 0.00041279827 
 9601000   0.77541376   -3.9292661   0.30878597   -2.5542863 0.00047157341 
 9602000   0.62554607   -3.9293926    0.6569697   -2.4122971 0.00019598213 
 9603000    1.1774563   -3.7369549   0.42337528   -1.6945773 0.00027165056 
 9604000    1.3930969   -3.6075824    0.5260301   -1.1660441 4.2531498e-05 
 9605000   0.72652097   -3.5660529   0.25720492   -2.3098816 -0.00012433149 
 9606000   0.88029963   -4.0411584   0.40633746   -2.4244089 -4.4040567e-05 
 9607000    1.1474135   -3.3525205   0.46070972   -1.3141172 -0.00014149435 
 9608000    1.4376301    -3.561046   0.37448218   -1.2098224 -0.00026772604 
 9609000    0.9592445   -3.9777991   0.77897219   -1.8798658 2.9846912e-05 
 9610000    1.7131308   -4.3624879   0.55747567   -1.4494574 0.00019843785 
 9611000    1.0001312   -3.8398962    0.4267348    -2.037981 2.6652975e-05 
 9612000   0.82419936    -4.252137    0.5759198   -2.5429431 -6.0560214e-05 
 9613000    1.1951769   -4.2318997   0.19982091   -2.3887105 0.00023061366 
 9614000   0.94427221   -3.9794954    0.5306615   -2.1504597 4.8134058e-05 
 9615000   0.81905752   -3.9930785   0.29849786   -2.5683766 -1.7603929e-05 
 9616000    1.2325023   -3.7655771   0.71968298   -1.3512034 -5.1221767e-05 
 9617000    1.2608723   -4.2190997   0.41551873   -2.0698816 -0.00021353226 
 9618000   0.84894286   -3.9657933   0.60519494   -2.1933019 -0.00019469222 
 9619000   0.97561492   -3.9141558   0.68803566   -1.8846496 0.00031130613 
 9620000   0.61603428   -4.0170602   0.56149133   -2.6085218 -0.00032787266 
 9621000   0.55057853   -3.7439385   0.62767174   -2.3592213 0.00010484781 
 9622000    1.3663252   -3.9626972   0.75861217   -1.3253879 -0.00031785088 
 9623000    1.1033286   -4.1974896   0.55012399   -2.1302889 -6.7822387e-05 
 9624000   0.98271645   -3.9580836   0.17105567   -2.4357928 0.00017732652 
 9625000    1.8461024   -4.2622805   0.53588889   -1.1880008 6.7850292e-05 
 9626000    1.4023445   -3.8953913   0.40592126   -1.5612463 8.5824054e-05 
 9627000   0.85984465   -3.7760035   0.60766402   -1.9860531 -0.00032503812 
 9628000   0.78549468   -3.9845328   0.29591343   -2.6085641 -8.8674038e-05 
 9629000    1.1651101   -3.9782782   0.70380946   -1.6724424 -0.00016111808 
 9630000   0.92953242   -4.3370419   0.44707136   -2.6118635 -3.5055551e-05 
 9631000    1.2154664   -2.6387838   0.21652109  -0.75099636 -0.00013780354 
 9632000    1.0849645   -4.1798284   0.40705063   -2.2809515 -0.00019630443 
 9633000    0.9716599   -4.1497426   0.33723347   -2.4764768 0.00011906293 
 9634000    1.5335199   -3.1313926   0.19353518  -0.82926753 0.00032156216 
 9635000    1.1090139   -4.0232309   0.37558105   -2.1227557 0.00029149643 
 9636000    1.2987807   -4.0880298   0.87181553   -1.4303908 6.5289057e-05 
 9637000    1.0403525   -4.3161526   0.31392155   -2.5717464 0.00021010137 
 9638000   0.68251277   -3.6993273   0.51350052   -2.2473717 0.00052219433 
 9639000     1.180104   -3.7916193   0.38435513   -1.7846212 0.00019799091 
 9640000    1.0348326   -4.0355195   0.26865982   -2.3439649 -7.1577973e-05 
 9641000   0.88277921    -3.997294   0.73825401   -2.0452186 -0.0001614805 
 9642000   0.83398957   -4.2785258   0.42842257   -2.7033676 -8.0617386e-05 
 9643000   0.66997476   -3.4400697   0.30520248    -2.213652 -0.00032361662 
 9644000    1.0476775   -3.3002737   0.41462429   -1.4450929 -0.00017096099 
 9645000    1.1066114    -4.059443    0.4709809   -2.0668713 -0.00012382719 
 9646000    1.5135671   -3.7289857    0.2999159   -1.3479151 0.00023351894 
 9647000   0.86740652   -3.0866974   0.34853798   -1.5454755 0.00041287312 
 9648000   0.90996542   -3.4536921   0.33357108   -1.8689186 0.00060901177 
 9649000    1.3763706   -3.3333922   0.30530229   -1.1355803 0.00032551319 
 9650000    1.1117822    -4.053964   0.16450851    -2.360755 0.00013219166 
 9651000   0.98064921   -3.6290237   0.37783562   -1.9027954 1.9057869e-05 
 9652000    1.3458248   -3.3659012   0.67047434  -0.84491781 -7.8672317e-05 
 9653000   0.60157853   -3.2835459   0.87703944    -1.579336 9.8138287e-05 
 9654000    1.2311184   -3.4983465   0.30205326   -1.5035054 0.00077463859 
 9655000   0.87604879   -3.8799344   0.93305829    -1.742309 -0.0002919072 
 9656000   0.96090783   -4.0554644   0.20750253   -2.5267137 7.8381335e-05 
 9657000    1.0587362   -3.6615264   0.59120816   -1.6145559 0.00061050407 
 9658000   0.72046316   -4.3903072   0.55842902   -2.8412414 -2.2952552e-05 
 9659000    1.3045863   -4.1425313   0.73588884   -1.6128362 -0.00022788119 
 9660000   0.79474952   -3.0817981   0.89069181   -1.0983257 0.00047489427 
 9661000    1.5592704    -3.900073    0.5216489   -1.2344273 -0.00015609467 
 9662000   0.81393658   -4.0931981   0.65585629    -2.318179 -4.4969815e-05 
 9663000   0.96437705   -3.5296908   0.16826817   -2.0354042 0.00020692784 
 9664000   0.95412038   -3.8842655   0.48805365   -2.0842963 0.00018395823 
 9665000    1.3413074   -3.1658705   0.17829784    -1.143275 0.00030367818 
 9666000    1.4143454   -3.3941278   0.60469969  -0.84470321 0.00015451332 
 9667000    0.6181474   -4.2753442   0.63407343   -2.7913181 -6.1935184e-05 
 9668000    1.3273789    -3.646948   0.33442791   -1.4873741 -0.00019495002 
 9669000    1.0040186   -4.1953245   0.35907072   -2.4557281 0.00010135942 
 9670000   0.84325632    -3.937094   0.68971202   -2.0879045 -0.00020733534 
 9671000   0.68484086   -3.8176424   0.41352239   -2.4624638 -0.00015401302 
 9672000   0.88009068   -3.4483877   0.46861116   -1.7696519 -0.00012686597 
 9673000   0.55644454   -4.1958148   0.35054389   -3.0801597 0.00037971995 
 9674000   0.89439525   -4.1394853   0.37373529   -2.5359565 -7.3184538e-05 
 9675000    1.0712793   -3.4882399    0.2698273   -1.7454036 2.195567e-05 
 9676000   0.75817221   -3.6422881   0.40191443   -2.1978869 -4.6520548e-06 
 9677000   0.80361263   -4.2271416   0.45446949   -2.6677048 -0.00020738217 
 9678000    1.1243597   -4.1522492   0.45149617   -2.1547585 0.00012039565 
 9679000    1.1378424    -4.062418   0.31356765   -2.1843171 -1.8211466e-05 
 9680000   0.96350528   -4.2785331   0.52633174   -2.4273816 4.2824632e-05 
 9681000     1.740437   -4.2528879   0.45707124   -1.4027158 0.0004496939 
 9682000   0.95400163   -4.3822966   0.30135199   -2.7691923 8.0419214e-05 
 9683000      1.20315   -4.1421927   0.41283382   -2.0750276 -0.00014207928 
 9684000    1.3234476    -3.955707    0.2261366     -1.90983 0.00019763633 
 9685000    1.3645748   -3.8917018   0.39805766   -1.6173538 -9.7093807e-06 
 9686000    0.8858807   -3.8182554   0.40998701   -2.1901824 -0.0001966079 
 9687000   0.88132032   -4.1715602   0.49770597   -2.4620388 1.2736094e-05 
 9688000   0.48169391   -4.1137301   0.69762902    -2.753772 -0.00018770739 
 9689000   0.90655874   -3.6939212   0.58528845   -1.8621144 -0.0001973813 
 9690000    0.9008553   -4.2237221   0.33068376   -2.6543623 -0.00038560018 
 9691000    1.2795779    -4.082962    0.4171224   -1.9064201 0.00015897806 
 9692000   0.66699961   -3.9482438   0.45107445   -2.5800449 -0.00017873398 
 9693000   0.93389809   -3.9211546   0.67484422   -1.9622005 -8.5601595e-05 
 9694000    1.4929655   -4.2805273   0.44647718   -1.7812225 0.00026489941 
 9695000   0.91393013   -4.2554104    0.3713029   -2.6274536 -4.4035416e-05 
 9696000   0.98011701   -3.9926284   0.56737869   -2.0775888 -0.00011892829 
 9697000   0.59941703    -4.296452    0.8223661   -2.6498875 -0.00020170503 
 9698000      1.17851   -4.1981784   0.81462203   -1.7631051 -9.0554685e-05 
 9699000   0.90824366    -3.812631   0.48563979   -2.0781562 -0.00017928323 
 9700000   0.55980415   -4.0616657   0.65474067   -2.6371943 -6.1568124e-05 
 9701000   0.97246046   -4.2020135    1.0435108   -1.8213695 -0.00029806079 
 9702000   0.78491329   -3.2135873   0.43833196   -1.6959995 0.00069844981 
 9703000   0.87114905   -4.1181879   0.38473803   -2.5356199 0.00020759427 
 9704000   0.83901086   -4.1202424   0.36991254     -2.59669 -0.0003144988 
 9705000   0.82208303   -4.0657159   0.39488932   -2.5404624 1.6358814e-05 
 9706000    1.1719942   -4.3677953   0.56210466   -2.1941987 -0.0001898126 
 9707000    1.0868255   -4.0282774   0.44411163   -2.0897808 0.00012971456 
 9708000   0.82311895   -4.0672609   0.41068141   -2.5247909 5.6066005e-05 
 9709000    1.2534562   -3.9494132    0.5004463   -1.7254646 -6.0357105e-05 
 9710000   0.92494313    -4.309648   0.77343844   -2.2644128 0.00019063106 
 9711000    0.7681522   -4.1142674    0.5545404   -2.5035177 0.00017325342 
 9712000    1.1332896   -4.3301203   0.20737797   -2.5644692 -0.00022105319 
 9713000    1.0155479   -3.7224027   0.59704969   -1.7289747 -4.3573434e-07 
 9714000    1.2111307   -4.2838947   0.25855709   -2.3600329 8.3030463e-05 
 9715000   0.90861635   -4.1461188   0.34096436    -2.555807 -0.00015258723 
 9716000    1.2231119   -4.0156905   0.55291618   -1.7809954 -1.9348531e-05 
 9717000   0.99398836   -4.1677185    0.8442716   -1.9567129 -0.00028995082 
 9718000     1.121792   -4.3022752    0.4646831   -2.2951281 -9.6290663e-05 
 9719000    1.0590772   -3.6776508   0.53842796   -1.6829916 -0.00031971035 
 9720000    1.0044546   -4.4420179     0.401982   -2.6589109 -0.00012057018 
 9721000    1.1465124   -4.2466646   0.64476354   -2.0254464 -0.00030481637 
 9722000   0.87751879   -4.4219622   0.52785238   -2.6875214 1.6807718e-05 
 9723000    1.1687459   -3.5536916   0.53254218   -1.4141238 1.5587769e-05 
 9724000   0.86891339   -4.1875024   0.56273917   -2.4300074 2.0007405e-05 
 9725000    1.5822642   -3.7066263   0.25001812   -1.2809949 -3.9635663e-06 
 9726000   0.75098986   -4.0636877   0.70967974   -2.3213969 -0.00013235507 
 9727000    1.2411467   -4.2430459   0.71482029   -1.8216489 8.0977415e-05 
 9728000   0.91286639   -3.7225257    0.5522686   -1.9150659 4.0272708e-05 
 9729000   0.94087246   -3.8201166   0.40865076   -2.1177662 -0.00026612523 
 9730000   0.90712018   -4.1411675   0.51689316   -2.3769841 -5.9991882e-05 
 9731000    1.2150636   -3.9100314   0.79973602   -1.4395829 8.1056588e-05 
 9732000   0.77912718   -4.2831822   0.20789034    -3.003992 8.8810532e-05 
 9733000    1.1716407   -4.0515984   0.34656027   -2.0940322 6.5742286e-05 
 9734000    1.0950781   -4.3657537   0.42919884   -2.4308225 -0.00016174849 
 9735000   0.83933668   -4.1874113   0.52117847   -2.5121449 4.9655543e-05 
 9736000   0.99214506   -4.4252551   0.40762677   -2.6534288 1.3720573e-05 
 9737000   0.91746647   -3.8113427   0.45786878   -2.0919575 0.00026265886 
 9738000    0.5907943   -4.1965177   0.48210272   -2.9020728 -0.00019616969 
 9739000   0.82162868   -4.0548565   0.54452896   -2.3805881 -0.0002083184 
 9740000   0.61392153   -4.3948281   0.80983881   -2.7408472 -0.00026416073 
 9741000   0.84881226   -3.8235511   0.35198835   -2.3044459 0.00036919081 
 9742000    1.1855543   -3.9585415    0.7313553    -1.597049 0.00036787605 
 9743000     1.519542   -4.1677516    0.5188145   -1.5595668 0.00016910957 
 9744000   0.63699443   -3.9674068   0.28083595   -2.8107035 -0.00032194142 
 9745000    1.2435692   -3.8252159   0.20195164   -1.9133566 0.00013971923 
 9746000    0.9187031   -4.3306533   0.26189005   -2.8055465 -0.00011994989 
 9747000    0.8863986   -3.5072341   0.46926898    -1.819167 1.4768569e-05 
 9748000    1.0517907   -4.3518397   0.20746865   -2.6981587 0.00010079444 
 9749000    1.1354701   -3.8406418   0.34033521   -1.9390352 0.00017975416 
 9750000   0.96261003   -3.7711092   0.81020996   -1.6373104 5.6356665e-05 
 9751000    1.0606113   -3.9060828   0.17055871   -2.2771836 0.00025300265 
 9752000   0.95045552   -3.9622614   0.37688294   -2.2785021 1.4761878e-05 
 9753000   0.99796307      -3.5188   0.41011313   -1.7364877 9.9887456e-05 
 9754000    1.1416323   -3.5757715   0.40333357   -1.6026935 0.00049349638 
 9755000    1.2846224     -4.05114   0.39351077   -1.8912735 0.00015431445 
 9756000    1.0559908   -4.0150678   0.63328906   -1.9297913 -0.00012616982 
 9757000   0.81523763   -3.1007845   0.34715123   -1.6326815 0.00028659502 
 9758000    1.1249247   -3.8977909    0.7356373   -1.6153821 4.8381747e-05 
 9759000   0.96167946   -3.9394069   0.40543101   -2.2116666 0.00024872082 
 9760000   0.68211395   -4.3207417   0.38719319   -2.9956418 -3.4538899e-05 
 9761000    1.2174457   -4.0608767   0.45810532   -1.9287835 -0.00015550106 
 9762000    1.0305816   -4.4439952   0.24407391   -2.7828716 6.3063776e-05 
 9763000   0.58964247   -4.2843841   0.45326989   -3.0203558 0.00025049367 
 9764000    1.0724036   -4.0626395   0.42891718   -2.1591674 1.0305601e-05 
 9765000   0.79866186   -4.4090716   0.30594097   -3.0049706 -0.00025255428 
 9766000   0.95772547   -3.7993642   0.61274549   -1.8697462 7.9002784e-05 
 9767000   0.90488112   -4.1550775   0.40094951   -2.5099165 3.2832602e-05 
 9768000   0.56840752   -4.0504271   0.41653225   -2.8523346 6.1331346e-05 
 9769000    1.1406798    -4.259773   0.45311939   -2.2382189 -0.00014892371 
 9770000   0.91625562   -3.8250826   0.31531344   -2.2499177 0.00037658858 
 9771000    1.0522382   -4.0186243   0.34882269   -2.2229741 -2.7214358e-05 
 9772000    1.4702923   -4.2048702     1.021205   -1.1620134 2.2640422e-05 
 9773000   0.99154992   -3.5287066    0.4696222   -1.6957032 7.0639038e-05 
 9774000   0.93115797   -3.5972467   0.62421078   -1.6926937 -4.6745459e-05 
 9775000    1.5358983    -3.927036   0.42125038   -1.3939254 -7.3302469e-05 
 9776000    0.9224811   -4.0559558   0.38921194   -2.3983324 -1.3492665e-05 
 9777000    1.0876048   -3.9503151   0.57185455   -1.8830039 -0.00017643564 
 9778000    1.7048225   -4.2127767   0.25871269   -1.6099331 4.0129408e-05 
 9779000    1.3798346   -4.3206927   0.25647116    -2.166949 2.694352e-05 
 9780000     1.196194   -4.3428065   0.28797821   -2.4100615 -0.00015587263 
 9781000     1.278234   -3.7596589   0.22364688   -1.7784402 0.00011996766 
 9782000   0.90588923   -4.1635422   0.38159283   -2.5363517 0.00014481358 
 9783000   0.88493612   -4.0110935   0.46016349   -2.3341428 0.00019351238 
 9784000   0.83315864    -4.073729    0.3988322   -2.5293037 0.00019609873 
 9785000    1.6625139   -4.2354586   0.71629821   -1.2332039 -0.00021481692 
 9786000    1.1976832    -4.165987   0.74336474   -1.7758079 -0.00027619447 
 9787000   0.76329834   -4.3423204   0.30574639   -2.9870388 -2.4627302e-05 
 9788000    1.0710975   -4.3207344   0.51020021    -2.337775 -4.5173748e-05 
 9789000   0.76277775   -4.0711659   0.47627707   -2.5460694 0.00029141605 
 9790000   0.86932777   -4.1716292   0.64589146   -2.3304121 0.00022112765 
 9791000    1.1088336   -4.1185505   0.33793915   -2.2559651 -3.9542204e-05 
 9792000   0.83228896   -4.0895026   0.51058626    -2.434519 0.00021526116 
 9793000   0.98242023   -4.2030396   0.57073731   -2.2814744 -0.00025337987 
 9794000    1.5910658   -3.9134729    0.3183633   -1.4073941 0.0001230655 
 9795000   0.92370078   -3.8182236   0.26948411   -2.2786509 -0.00027142013 
 9796000   0.73359835   -4.3165678   0.30490041   -3.0029696 0.00016984666 
 9797000    1.5803683   -4.2608792   0.31661812   -1.7712547 0.0002726086 
 9798000   0.76011678   -4.2138699   0.34141583   -2.8272935 0.00029668139 
 9799000   0.85997418   -3.8670356   0.43934715   -2.2452239 -3.5069335e-05 
 9800000   0.93583564   -4.3273759   0.36980196   -2.6707999 0.00012242022 
 9801000    1.1778439   -3.9977147   0.36586685   -2.0123125 -0.00012095168 
 9802000    1.0237967     -4.38952   0.65434537   -2.3274541 -0.00016196781 
 9803000   0.75119545   -4.2700444   0.55358578   -2.6835649 0.00033380852 
 9804000    1.0140318   -3.8342698   0.20895159   -2.2310245 0.00026489796 
 9805000    1.1441664   -3.6923633   0.46060506   -1.6585294 9.9738663e-05 
 9806000    0.9778334   -3.9378491   0.14056938   -2.4527588 0.0001621262 
 9807000    1.1060506   -4.0036197   0.24689117    -2.235909 -0.00032175326 
 9808000    1.0846176   -3.8146445   0.46783315   -1.8554621 4.3274509e-05 
 9809000   0.98908233   -4.2230878   0.33917812   -2.5239215 -6.8034536e-06 
 9810000   0.63826238   -3.6425644   0.24868278   -2.5162708 3.3972287e-05 
 9811000    1.3011175   -4.0764021   0.50413221   -1.7832334 0.00044045363 
 9812000   0.99314058   -4.3088721   0.21057309   -2.7327307 -2.0919921e-05 
 9813000    1.0675995   -3.9616749   0.46034425   -2.0333814 -0.00019527857 
 9814000     1.079295   -4.0454857   0.41568117    -2.145774 0.00039189471 
 9815000   0.88524448   -4.3499487     0.508792   -2.6239455 -4.4395479e-05 
 9816000    1.1933143   -3.5753183   0.26726398   -1.6672472 0.00015326769 
 9817000   0.84371548   -4.1597381   0.71590323    -2.283726 -0.00057478246 
 9818000    1.2798827    -3.728702    0.4190263   -1.5498369 0.00022811984 
 9819000   0.64693475   -4.0422052   0.32432651   -2.8283435 0.00015519443 
 9820000    1.3504981   -4.1002386   0.31874162   -1.9245621 -7.4591369e-05 
 9821000   0.96617146   -3.7865296   0.26082895   -2.1972149 7.2923319e-05 
 9822000    1.0108671   -3.8028054    0.3435635   -2.0692996 -5.6477507e-05 
 9823000     1.078995   -3.4501459   0.45525146   -1.5112764 -0.00010069255 
 9824000    1.0794283   -3.6769347   0.68627496   -1.5064458 -8.4381184e-05 
 9825000   0.77195642   -4.0742212   0.36711835   -2.6456627 -0.0002002122 
 9826000   0.78961687   -4.2246372   0.33340327   -2.8055108 0.00020208987 
 9827000   0.92295309   -3.6200886   0.33524632   -2.0157818 -6.8431242e-05 
 9828000   0.89058578   -3.8301946   0.49377714    -2.111862 0.00020895561 
 9829000   0.70405161   -3.9504442   0.46419942   -2.5181738 -0.00027853619 
 9830000    1.0546541   -4.3603886   0.30997361   -2.6002656 6.1250753e-05 
 9831000    1.0869617   -4.1516093   0.26391804   -2.3931189 0.00035651976 
 9832000   0.71656313   -3.9821211   0.63691113   -2.3599357 -0.0004020577 
 9833000     1.149074     -3.76279   0.35286085   -1.8299524 1.3009536e-05 
 9834000    1.1515467   -3.7517284   0.35650289   -1.8118487 0.00012925179 
 9835000   0.74359688    -4.066521   0.45250334    -2.591572 0.00020100633 
 9836000    1.0074595   -4.4477542   0.62872107   -2.4337763 0.00010321226 
 9837000    1.0516549   -3.6100316   0.30207426   -1.8619319 7.1553232e-05 
 9838000   0.86537495    -4.171468   0.34662487   -2.6349526 -3.7480322e-06 
 9839000   0.71546106   -4.2669022   0.49300344   -2.7901398 0.00039543727 
 9840000    1.2488686   -4.3335683   0.32663518   -2.2897388 -0.00010716972 
 9841000    1.5512109   -3.8787887   0.59017986   -1.1556938 0.00019874192 
 9842000    1.1791246   -4.0643829   0.25722933   -2.1858572 0.0001789774 
 9843000    1.0613552   -4.1645015   0.25522298    -2.449915 -6.8700627e-05 
 9844000   0.87533139   -4.3751146   0.40857402   -2.7629599 -1.4640031e-06 
 9845000    0.9827407   -3.6686805   0.42492075   -1.8924912 2.6266084e-05 
 9846000   0.75604048   -4.0062199   0.43944282   -2.5272214 0.00026443587 
 9847000   0.77431652   -3.9086437   0.28250869   -2.5614498 -4.8494801e-05 
 9848000    1.7445349   -3.5146327    0.7017551  -0.41414214 0.00016507067 
 9849000    1.1205815   -3.8034388   0.34940823    -1.913231 -0.00037510918 
 9850000   0.78482182    -3.885168    0.7229108   -2.0831272 -0.00033744876 
 9851000   0.75060921   -3.7851401   0.37509348    -2.377959 9.4025941e-05 
 9852000   0.82972262   -4.2427363     0.493596   -2.6082717 -0.00019450099 
 9853000    1.0671463   -3.9217575   0.38695941   -2.0674718 4.1298978e-05 
 9854000   0.61608197   -4.3698752   0.43256962   -3.0901929 -0.00011057585 
 9855000    1.2575002   -3.9264912   0.38463693   -1.8127914 -0.00036733416 
 9856000    1.2365136   -3.9388381   0.30432349   -1.9343084 -0.00029674138 
 9857000    1.0139356   -3.8865261     0.796155   -1.6962096 0.00010524843 
 9858000   0.81320174   -4.0964673   0.38660988   -2.5917051 5.5634912e-06 
 9859000   0.62791412   -3.6528194   0.22146053   -2.5679769 0.00022674853 
 9860000    1.0983695    -3.373117   0.25420045   -1.6086585 0.00013314123 
 9861000    1.1070181   -4.3526329   0.49540638   -2.3350767 -0.00012837651 
 9862000     1.320099   -4.1133581   0.47907625   -1.8191458 7.0339215e-05 
 9863000   0.85239395   -4.0796165   0.14854128   -2.7590335 0.00012662122 
 9864000   0.53189259   -4.1278291    0.4252952   -2.9711815 -0.00015437438 
 9865000   0.97790647   -3.9711589   0.30429216   -2.3222453 8.0098088e-05 
 9866000   0.99313184   -3.7227422  0.063256862    -2.293929 0.00040731168 
 9867000   0.65061442   -3.9350153   0.37866425   -2.6617562 4.9775113e-05 
 9868000     1.115273   -4.2907665   0.40363265   -2.3536334 3.2999004e-05 
 9869000    1.0908541   -4.1297855   0.72206893   -1.9077921 7.2385247e-05 
 9870000   0.71111315   -4.3235905   0.43682361   -2.9089863 -0.00022519027 
 9871000   0.79986711    -3.772398   0.54982599   -2.1227547 0.0001188161 
 9872000    1.0236755   -3.9893548   0.20402089   -2.3777802 0.0005240601 
 9873000   0.76040143   -3.7939079   0.39368678   -2.3546692 -6.3952736e-05 
 9874000    1.4778665   -4.3042219    0.6573482   -1.6148072 -0.00021219931 
 9875000    1.0900556   -3.9493111   0.48028749   -1.9701971 -0.00039691665 
 9876000   0.69354637   -4.1554892    0.4641844   -2.7376786 3.2506039e-06 
 9877000    0.6396191   -4.2886222   0.30962552   -3.0995205 0.00021509073 
 9878000    1.3481999   -4.3370714   0.47433411   -2.0089624 0.00011502752 
 9879000    1.4759932   -3.8855862   0.37921836   -1.4768772 -4.1954714e-05 
 9880000    1.0894248   -4.1677779   0.44796306   -2.2218558 -0.00012039807 
 9881000   0.56156818   -4.5295914   0.25503653   -3.5023987 4.4442977e-05 
 9882000   0.85984994   -3.9165691   0.35948672   -2.3747887 -7.55152e-05 
 9883000    1.2030346   -4.0443894   0.35118745   -2.0390293 0.00011538019 
 9884000    1.2662602   -4.2589131   0.56069962   -1.9571056 1.4765016e-05 
 9885000    1.1161916   -4.1020685   0.46584656   -2.1014585 -7.8737892e-05 
 9886000   0.69221766   -4.1188949   0.42976781   -2.7373278 0.00018136913 
 9887000    1.0199489   -4.1853945   0.54619883   -2.2367659 -0.00038955385 
 9888000    1.2734344   -4.2194324   0.26738395   -2.2010762 0.0001560616 
 9889000   0.71673431   -4.2543156    0.2789305   -2.9898755 0.00032691162 
 9890000    1.2582816   -4.4404148   0.70309025   -2.0071874 9.1181599e-06 
 9891000    1.2388223   -3.8628485   0.93195934   -1.2275085 -0.00014263637 
 9892000    1.0585795   -4.3283149   0.78356597   -2.0892021 7.1357602e-06 
 9893000   0.96184976   -4.2762223   0.36448034   -2.5891985 5.7834863e-05 
 9894000    1.0518846   -4.1281701   0.27512356   -2.4067053 7.3179622e-06 
 9895000    1.0980716   -4.0243175   0.29532756   -2.2191415 -0.00026566563 
 9896000     1.816104   -3.9260189   0.28883483   -1.1400411 -0.00010450228 
 9897000    1.2992818   -4.2100037   0.55113948   -1.8723517 0.0001004859 
 9898000   0.96221991   -3.8610872   0.32795566   -2.2100792 0.00012578648 
 9899000    1.0350905   -3.4510974   0.62516934   -1.4026787 0.00015564157 
 9900000    1.0849879   -3.5747028   0.33864401   -1.7442004 0.00017339815 
 9901000    0.7393612   -4.1643639   0.41842284   -2.7293194 4.6523833e-05 
 9902000   0.70934269   -4.2093141   0.28835271   -2.9456152 -0.00032478007 
 9903000    1.1432068   -4.1455653   0.44060303   -2.1330529 -0.00012721617 
 9904000   0.78255271   -3.8755445   0.30534282   -2.4941917 -0.00027280174 
 9905000   0.79879351   -4.2737287   0.37660753   -2.7987801 -0.00040957499 
 9906000    1.1107143   -4.2585757   0.26632705   -2.4650165 7.5874809e-05 
 9907000    1.0435316   -4.1384955   0.27416601   -2.4294735 0.00010171298 
 9908000   0.93369987   -4.1631599   0.51563994   -2.3636826 -0.0001095773 
 9909000    1.1195319   -4.1987333   0.23621795   -2.4231591 -0.00014026845 
 9910000    0.8601868   -4.2765379   0.32148483   -2.7722962 5.4901893e-05 
 9911000    1.2065352   -4.4068236   0.64139832   -2.1064393 1.9988158e-05 
 9912000   0.96305868    -4.170889   0.22344314   -2.6232402 -0.000329856 
 9913000    1.0068497   -4.4237596    0.4316377   -2.6077035 -0.00010162146 
 9914000   0.84674794   -3.8839534   0.50084092    -2.218834 -0.00016968503 
 9915000    1.0508012    -3.927197   0.12765559   -2.3546897 0.00017262035 
 9916000   0.97041792    -4.052931   0.25463121   -2.4639751 -0.00011210415 
 9917000   0.77646966   -4.3528186   0.71447209   -2.5707007 -0.00050205487 
 9918000   0.77228068   -4.0826714   0.39174876   -2.6290367 -3.1182272e-05 
 9919000   0.81256005   -3.8451596   0.33488933   -2.3930002 -0.00016125115 
 9920000    1.3530875   -3.7927851   0.48916085    -1.443129 -8.9620905e-05 
 9921000   0.96049206   -3.7140312   0.19744535   -2.1959092 0.00060300647 
 9922000   0.86875742    -4.212801   0.15782572   -2.8604338 0.0001520218 
 9923000    1.0196577   -4.0199738   0.14337671   -2.4745677 -7.463474e-05 
 9924000    1.0273719   -4.0659441   0.42420444   -2.2291032 -2.2249923e-05 
 9925000   0.77122925   -4.1833485   0.47692689   -2.6459814 6.8653535e-05 
 9926000   0.66707909   -4.1066304   0.34410312   -2.8452935 -3.5511452e-05 
 9927000   0.89827165   -3.7653002   0.35065618   -2.1795205 0.0002808067 
 9928000    1.3188993   -4.4560143   0.73416617   -1.9083615 0.00010534929 
 9929000   0.63813093   -4.0143545   0.23383464   -2.9030898 -4.9570137e-05 
 9930000   0.90836272   -4.1937749   0.57248073   -2.3722954 -2.1423617e-05 
 9931000   0.83234098   -3.8042869   0.64699581   -2.0128223 -0.00021230919 
 9932000   0.82077939   -4.5120599   0.51861545   -2.8648728 2.190874e-05 
 9933000    1.0355601   -3.8427675   0.31004474   -2.1088275 8.8154314e-05 
 9934000   0.94354254   -4.1762544   0.31922625   -2.5596572 -0.00022258514 
 9935000   0.82912867   -4.1011362   0.50749649   -2.4535878 0.00014269445 
 9936000    1.0534985   -4.2110279    0.8009715   -1.9614959 -0.000360234 
 9937000   0.82437953   -4.1468533   0.50336159   -2.5099699 -0.00012683869 
 9938000   0.88097333   -3.9989138   0.57979364   -2.2077818 -0.00013069729 
 9939000   0.87693172   -4.1947248   0.42254453   -2.5663992 -2.8612443e-05 
 9940000    1.0104765   -4.1903292   0.38743372   -2.4134903 -1.5025073e-05 
 9941000    1.3646813   -4.1047726   0.24455487    -1.983781 0.00027610034 
 9942000   0.90978851   -4.0404922   0.39228407   -2.3972489 -0.00045856933 
 9943000    1.0400747    -3.950715   0.35975044   -2.1608618 0.0002095879 
 9944000    1.0009485   -4.0900503   0.27810746   -2.4356387 -0.00030817165 
 9945000   0.76609457   -3.9749525   0.28385422   -2.6377182 -5.2210099e-05 
 9946000    1.7978102   -3.3892647   0.47701778  -0.44025787 0.00054099011 
 9947000   0.61282283   -3.8945319   0.45164567   -2.6002548 -0.00011862787 
 9948000    1.1618042   -3.9792958   0.37960238   -2.0022126 -0.00041750862 
 9949000   0.95162716   -4.0101783   0.70777976   -1.9939111 -0.00025463016 
 9950000    0.9838416   -4.0050481   0.77381675   -1.8784492 4.6934046e-06 
 9951000   0.83147946   -4.2267192   0.32181586   -2.7616191 -0.00013133699 
 9952000    1.1923995   -4.1419183   0.28165072   -2.2207183 0.00033597987 
 9953000   0.66756197   -3.6844012  0.087429122   -2.6790744 0.00044212583 
 9954000     1.045716   -4.0839696   0.49311083   -2.1529993 -8.4721303e-05 
 9955000     1.673737   -4.1192864   0.42119251   -1.3967055 0.00012670219 
 9956000   0.82774298   -3.7153438   0.42839455   -2.1488027 0.0001180877 
 9957000    1.0379701    -3.988195   0.20521668   -2.3557694 0.00024353919 
 9958000    1.2276663   -4.1659805   0.38309195   -2.0948474 -2.8855385e-05 
 9959000    1.3146846   -4.0360879   0.60689347   -1.6215031 -0.00041133282 
 9960000    1.2170109   -4.3245546   0.49064963    -2.160515 -8.1724201e-05 
 9961000    1.3395708   -4.0916631   0.27333454   -1.9764186 2.7526216e-05 
 9962000   0.99026547   -4.3872958   0.70243635   -2.3232444 -0.00011083711 
 9963000    1.0219401   -4.0770973   0.37756066    -2.294369 -0.00010816549 
 9964000   0.80677271   -4.2067642   0.51162554   -2.5858261 -0.00015239962 
 9965000   0.87359942   -4.1970032    1.0599994   -1.9358046 -0.00022130642 
 9966000   0.74066232   -4.3425104   0.72074607   -2.6033536 -0.00036841421 
 9967000       1.2026   -3.6052015   0.32817126   -1.6234552 0.00020832114 
 9968000    1.0009341   -4.2693747   0.78254636   -2.1105441 0.0001172059 
 9969000   0.96567557   -3.7964121    0.3249346   -2.1436736 0.00036746206 
 9970000    1.0840317   -4.4872268   0.30205449   -2.6946288 -8.7291024e-05 
 9971000    1.0969933   -4.3167835    0.6699326   -2.1384852 5.110858e-05 
 9972000    1.0661713   -4.2662438    0.6481031   -2.1521552 -0.00030888588 
 9973000   0.98134543   -3.1562233   0.24353119   -1.5633421 1.9808511e-05 
 9974000   0.90654275   -3.9468582   0.38707493    -2.313287 -6.7450881e-05 
 9975000   0.89069069   -3.4958107   0.26462851   -2.0064825 1.9251192e-05 
 9976000    1.0014765   -3.8696584   0.18068746   -2.3119407 2.8088012e-05 
 9977000    1.1979607    -4.030191    1.0689543   -1.3140407 6.421398e-05 
 9978000    1.2138547   -4.1375823   0.48470742   -1.9838246 0.0001584779 
 9979000   0.85157224   -3.6149414      0.15053   -2.2934996 0.00019395533 
 9980000    0.8656997   -4.1420665   0.30216154   -2.6495678 4.6609297e-05 
 9981000    1.1435285    -3.670544   0.33333171   -1.7648605 9.3304416e-06 
 9982000   0.60583572   -4.1238429   0.30817548   -2.9826433 -0.00012670412 
 9983000   0.90627736   -4.3069095   0.41177653   -2.6490016 -9.3391936e-05 
 9984000    1.1728108   -3.9649123   0.35181217   -2.0004852 0.00040727787 
 9985000   0.80658403   -4.3546707   0.64611854   -2.5994992 8.0756064e-06 
 9986000   0.45553248   -3.7654779   0.35985682    -2.779264 -0.00012619416 
 9987000    1.1436955   -3.6067296   0.32534178   -1.7088065 9.1133459e-05 
 9988000    0.9473998   -4.3946671   0.31003558   -2.7819568 0.00012536648 
 9989000    1.1511434   -3.5831118   0.62413723   -1.3761524 5.903539e-05 
 9990000   0.96493707   -4.0605281   0.45747458    -2.276265 -0.00017877278 
 9991000    1.0852177   -4.1665893   0.42067102    -2.253744 0.00036737582 
 9992000    1.1660801   -4.1295482   0.94394907    -1.582239 -0.00030108363 
 9993000    1.3272232   -3.8380929    0.4303725   -1.5827886 -0.00026885801 
 9994000    1.0285627   -4.2788793   0.28411818   -2.5804874 -0.00030094386 
 9995000    1.0772892   -4.1489386   0.58050677   -2.0871591   9.3608e-05 
 9996000    1.3962104   -3.7792828   0.71283411   -1.1466594 -9.109026e-06 
 9997000     1.077783   -4.3224474    0.3296434   -2.5108523 -0.00031455106 
 9998000   0.82511918   -3.6874863   0.61393564   -1.9390118 0.0001774756 
 9999000   0.75422806   -4.3799443   0.30076053   -3.0421202 7.6909757e-05 
10000000    1.0578531   -4.1692826   0.61600494   -2.0987296 -3.2024543e-05 
Loop time of 846.048 on 1 procs for 10000000 steps with 12 atoms

Performance: 5106092.990 tau/day, 11819.660 timesteps/s
99.6% CPU use with 1 MPI tasks x no OpenMP threads

MPI task timing breakdown:
Section |  min time  |  avg time  |  max time  |%varavg| %total
---------------------------------------------------------------
Pair    | 5.8509     | 5.8509     | 5.8509     |   0.0 |  0.69
Bond    | 2.7929     | 2.7929     | 2.7929     |   0.0 |  0.33
Neigh   | 15.387     | 15.387     | 15.387     |   0.0 |  1.82
Comm    | 729.02     | 729.02     | 729.02     |   0.0 | 86.17
Output  | 0.18135    | 0.18135    | 0.18135    |   0.0 |  0.02
Modify  | 90.461     | 90.461     | 90.461     |   0.0 | 10.69
Other   |            | 2.355      |            |       |  0.28

Nlocal:    12 ave 12 max 12 min
Histogram: 1 0 0 0 0 0 0 0 0 0
Nghost:    0 ave 0 max 0 min
Histogram: 1 0 0 0 0 0 0 0 0 0
Neighs:    29 ave 29 max 29 min
Histogram: 1 0 0 0 0 0 0 0 0 0

Total # of neighbors = 29
Ave neighs/atom = 2.41667
Ave special neighs/atom = 5
Neighbor list builds = 802941
Dangerous builds = 163290
Total wall time: 0:14:06
